*SPEF "ieee 1481-1999"
*DESIGN "fifo_top"
*DATE "17:14:45 Tuesday August 04, 2026"
*VENDOR "The OpenROAD Project"
*PROGRAM "OpenROAD"
*VERSION "26Q3-681-gda7a2b2816"
*DESIGN_FLOW "NAME_SCOPE LOCAL" "PIN_CAP NONE"
*DIVIDER /
*DELIMITER :
*BUS_DELIMITER []
*T_UNIT 1 NS
*C_UNIT 1 PF
*R_UNIT 1 OHM
*L_UNIT 1 HENRY

*NAME_MAP
*1 clk
*828 clknet_0_clk
*829 clknet_4_0_0_clk
*839 clknet_4_10_0_clk
*840 clknet_4_11_0_clk
*841 clknet_4_12_0_clk
*842 clknet_4_13_0_clk
*843 clknet_4_14_0_clk
*844 clknet_4_15_0_clk
*830 clknet_4_1_0_clk
*831 clknet_4_2_0_clk
*832 clknet_4_3_0_clk
*833 clknet_4_4_0_clk
*834 clknet_4_5_0_clk
*835 clknet_4_6_0_clk
*836 clknet_4_7_0_clk
*837 clknet_4_8_0_clk
*838 clknet_4_9_0_clk
*33 controller/_00_
*34 controller/_01_
*35 controller/_02_
*36 controller/_03_
*37 controller/_04_
*38 controller/_05_
*39 controller/_06_
*40 controller/_07_
*41 controller/_08_
*42 controller/_09_
*43 controller/_10_
*44 controller/_11_
*45 controller/_12_
*46 controller/_13_
*47 controller/_14_
*48 controller/_15_
*49 controller/_16_
*50 controller/_17_
*51 controller/_18_
*52 controller/_19_
*53 controller/_20_
*54 controller/_21_
*55 controller/_22_
*56 controller/_23_
*57 controller/_24_
*58 controller/_25_
*59 controller/_26_
*60 controller/_27_
*61 controller/_28_
*62 controller/_29_
*63 controller/_30_
*64 controller/_31_
*65 controller/_32_
*66 controller/_33_
*67 controller/_34_
*68 controller/_35_
*69 controller/_36_
*70 controller/_37_
*71 controller/_38_
*72 controller/_39_
*73 controller/_40_
*74 controller/count[0]
*75 controller/count[1]
*76 controller/count[2]
*77 controller/count[3]
*78 controller/count[4]
*849 controller/net10
*850 controller/net11
*854 controller/net19
*845 controller/net6
*846 controller/net7
*847 controller/net8
*848 controller/net9
*2 data_in[0]
*3 data_in[1]
*4 data_in[2]
*5 data_in[3]
*6 data_in[4]
*7 data_in[5]
*8 data_in[6]
*9 data_in[7]
*10 data_out[0]
*11 data_out[1]
*12 data_out[2]
*13 data_out[3]
*14 data_out[4]
*15 data_out[5]
*16 data_out[6]
*17 data_out[7]
*18 empty
*19 full
*79 memory/_0000_
*80 memory/_0001_
*81 memory/_0002_
*82 memory/_0003_
*83 memory/_0004_
*84 memory/_0005_
*85 memory/_0006_
*86 memory/_0007_
*87 memory/_0008_
*88 memory/_0009_
*89 memory/_0010_
*90 memory/_0011_
*91 memory/_0012_
*92 memory/_0013_
*93 memory/_0014_
*94 memory/_0015_
*95 memory/_0016_
*96 memory/_0017_
*97 memory/_0018_
*98 memory/_0019_
*99 memory/_0020_
*100 memory/_0021_
*101 memory/_0022_
*102 memory/_0023_
*103 memory/_0024_
*104 memory/_0025_
*105 memory/_0026_
*106 memory/_0027_
*107 memory/_0028_
*108 memory/_0029_
*109 memory/_0030_
*110 memory/_0031_
*111 memory/_0032_
*112 memory/_0033_
*113 memory/_0034_
*114 memory/_0035_
*115 memory/_0036_
*116 memory/_0037_
*117 memory/_0038_
*118 memory/_0039_
*119 memory/_0040_
*120 memory/_0041_
*121 memory/_0042_
*122 memory/_0043_
*123 memory/_0044_
*124 memory/_0045_
*125 memory/_0046_
*126 memory/_0047_
*127 memory/_0048_
*128 memory/_0049_
*129 memory/_0050_
*130 memory/_0051_
*131 memory/_0052_
*132 memory/_0053_
*133 memory/_0054_
*134 memory/_0055_
*135 memory/_0056_
*136 memory/_0057_
*137 memory/_0058_
*138 memory/_0059_
*139 memory/_0060_
*140 memory/_0061_
*141 memory/_0062_
*142 memory/_0063_
*143 memory/_0064_
*144 memory/_0065_
*145 memory/_0066_
*146 memory/_0067_
*147 memory/_0068_
*148 memory/_0069_
*149 memory/_0070_
*150 memory/_0071_
*151 memory/_0072_
*152 memory/_0073_
*153 memory/_0074_
*154 memory/_0075_
*155 memory/_0076_
*156 memory/_0077_
*157 memory/_0078_
*158 memory/_0079_
*159 memory/_0080_
*160 memory/_0081_
*161 memory/_0082_
*162 memory/_0083_
*163 memory/_0084_
*164 memory/_0085_
*165 memory/_0086_
*166 memory/_0087_
*167 memory/_0088_
*168 memory/_0089_
*169 memory/_0090_
*170 memory/_0091_
*171 memory/_0092_
*172 memory/_0093_
*173 memory/_0094_
*174 memory/_0095_
*175 memory/_0096_
*176 memory/_0097_
*177 memory/_0098_
*178 memory/_0099_
*179 memory/_0100_
*180 memory/_0101_
*181 memory/_0102_
*182 memory/_0103_
*183 memory/_0104_
*184 memory/_0105_
*185 memory/_0106_
*186 memory/_0107_
*187 memory/_0108_
*188 memory/_0109_
*189 memory/_0110_
*190 memory/_0111_
*191 memory/_0112_
*192 memory/_0113_
*193 memory/_0114_
*194 memory/_0115_
*195 memory/_0116_
*196 memory/_0117_
*197 memory/_0118_
*198 memory/_0119_
*199 memory/_0120_
*200 memory/_0121_
*201 memory/_0122_
*202 memory/_0123_
*203 memory/_0124_
*204 memory/_0125_
*205 memory/_0126_
*206 memory/_0127_
*207 memory/_0128_
*208 memory/_0129_
*209 memory/_0130_
*210 memory/_0131_
*211 memory/_0132_
*212 memory/_0133_
*213 memory/_0134_
*214 memory/_0135_
*215 memory/_0136_
*216 memory/_0137_
*217 memory/_0138_
*218 memory/_0139_
*219 memory/_0140_
*220 memory/_0141_
*221 memory/_0142_
*222 memory/_0143_
*223 memory/_0144_
*224 memory/_0145_
*225 memory/_0146_
*226 memory/_0147_
*227 memory/_0148_
*228 memory/_0149_
*229 memory/_0150_
*230 memory/_0151_
*231 memory/_0152_
*232 memory/_0153_
*233 memory/_0154_
*234 memory/_0155_
*235 memory/_0156_
*236 memory/_0157_
*237 memory/_0158_
*238 memory/_0159_
*239 memory/_0160_
*240 memory/_0161_
*241 memory/_0162_
*242 memory/_0163_
*243 memory/_0164_
*244 memory/_0165_
*245 memory/_0166_
*246 memory/_0167_
*247 memory/_0168_
*248 memory/_0169_
*249 memory/_0170_
*250 memory/_0171_
*251 memory/_0172_
*252 memory/_0173_
*253 memory/_0174_
*254 memory/_0175_
*255 memory/_0176_
*256 memory/_0177_
*257 memory/_0178_
*258 memory/_0179_
*259 memory/_0180_
*260 memory/_0181_
*261 memory/_0182_
*262 memory/_0183_
*263 memory/_0184_
*264 memory/_0185_
*265 memory/_0186_
*266 memory/_0187_
*267 memory/_0188_
*268 memory/_0189_
*269 memory/_0190_
*270 memory/_0191_
*271 memory/_0192_
*272 memory/_0193_
*273 memory/_0194_
*274 memory/_0195_
*275 memory/_0196_
*276 memory/_0197_
*277 memory/_0198_
*278 memory/_0199_
*279 memory/_0200_
*280 memory/_0201_
*281 memory/_0202_
*282 memory/_0203_
*283 memory/_0204_
*284 memory/_0205_
*285 memory/_0206_
*286 memory/_0207_
*287 memory/_0208_
*288 memory/_0209_
*289 memory/_0210_
*290 memory/_0211_
*291 memory/_0212_
*292 memory/_0213_
*293 memory/_0214_
*294 memory/_0215_
*295 memory/_0216_
*296 memory/_0217_
*297 memory/_0218_
*298 memory/_0219_
*299 memory/_0220_
*300 memory/_0221_
*301 memory/_0222_
*302 memory/_0223_
*303 memory/_0224_
*304 memory/_0225_
*305 memory/_0226_
*306 memory/_0227_
*307 memory/_0228_
*308 memory/_0229_
*309 memory/_0230_
*310 memory/_0231_
*311 memory/_0232_
*312 memory/_0233_
*313 memory/_0234_
*314 memory/_0235_
*315 memory/_0236_
*316 memory/_0237_
*317 memory/_0238_
*318 memory/_0239_
*319 memory/_0240_
*320 memory/_0241_
*321 memory/_0242_
*322 memory/_0243_
*323 memory/_0244_
*324 memory/_0245_
*325 memory/_0246_
*326 memory/_0247_
*327 memory/_0248_
*328 memory/_0249_
*329 memory/_0250_
*330 memory/_0251_
*331 memory/_0252_
*332 memory/_0253_
*333 memory/_0254_
*334 memory/_0255_
*335 memory/_0256_
*336 memory/_0257_
*337 memory/_0258_
*338 memory/_0259_
*339 memory/_0260_
*340 memory/_0261_
*341 memory/_0262_
*342 memory/_0263_
*343 memory/_0264_
*344 memory/_0265_
*345 memory/_0266_
*346 memory/_0267_
*347 memory/_0268_
*348 memory/_0269_
*349 memory/_0270_
*350 memory/_0271_
*351 memory/_0272_
*352 memory/_0273_
*353 memory/_0274_
*354 memory/_0275_
*355 memory/_0276_
*356 memory/_0277_
*357 memory/_0278_
*358 memory/_0279_
*359 memory/_0280_
*360 memory/_0281_
*361 memory/_0282_
*362 memory/_0283_
*363 memory/_0284_
*364 memory/_0285_
*365 memory/_0286_
*366 memory/_0287_
*367 memory/_0288_
*368 memory/_0289_
*369 memory/_0290_
*370 memory/_0291_
*371 memory/_0292_
*372 memory/_0293_
*373 memory/_0294_
*374 memory/_0295_
*375 memory/_0296_
*376 memory/_0297_
*377 memory/_0298_
*378 memory/_0299_
*379 memory/_0300_
*380 memory/_0301_
*381 memory/_0302_
*382 memory/_0303_
*383 memory/_0304_
*384 memory/_0305_
*385 memory/_0306_
*386 memory/_0307_
*387 memory/_0308_
*388 memory/_0309_
*389 memory/_0310_
*390 memory/_0311_
*391 memory/_0312_
*392 memory/_0313_
*393 memory/_0314_
*394 memory/_0315_
*395 memory/_0316_
*396 memory/_0317_
*397 memory/_0318_
*398 memory/_0319_
*399 memory/_0320_
*400 memory/_0321_
*401 memory/_0322_
*402 memory/_0323_
*403 memory/_0324_
*404 memory/_0325_
*405 memory/_0326_
*406 memory/_0327_
*407 memory/_0328_
*408 memory/_0329_
*409 memory/_0330_
*410 memory/_0331_
*411 memory/_0332_
*412 memory/_0333_
*413 memory/_0334_
*414 memory/_0335_
*415 memory/_0336_
*416 memory/_0337_
*417 memory/_0338_
*418 memory/_0339_
*419 memory/_0340_
*420 memory/_0341_
*421 memory/_0342_
*422 memory/_0343_
*423 memory/_0344_
*424 memory/_0345_
*425 memory/_0346_
*426 memory/_0347_
*427 memory/_0348_
*428 memory/_0349_
*429 memory/_0350_
*430 memory/_0351_
*431 memory/_0352_
*432 memory/_0353_
*433 memory/_0354_
*434 memory/_0355_
*435 memory/_0356_
*436 memory/_0357_
*437 memory/_0358_
*438 memory/_0359_
*439 memory/_0360_
*440 memory/_0361_
*441 memory/_0362_
*442 memory/_0363_
*443 memory/_0364_
*444 memory/_0365_
*445 memory/_0366_
*446 memory/_0367_
*447 memory/_0368_
*448 memory/_0369_
*449 memory/_0370_
*450 memory/_0371_
*451 memory/_0372_
*452 memory/_0373_
*453 memory/_0374_
*454 memory/_0375_
*455 memory/_0376_
*456 memory/_0377_
*457 memory/_0378_
*458 memory/_0379_
*459 memory/_0380_
*460 memory/_0381_
*461 memory/_0382_
*462 memory/_0383_
*463 memory/_0384_
*464 memory/_0385_
*465 memory/_0386_
*466 memory/_0387_
*467 memory/_0388_
*468 memory/_0389_
*469 memory/_0390_
*470 memory/_0391_
*471 memory/_0392_
*472 memory/_0393_
*473 memory/_0394_
*474 memory/_0395_
*475 memory/_0396_
*476 memory/_0397_
*477 memory/_0398_
*478 memory/_0399_
*479 memory/_0400_
*480 memory/_0401_
*481 memory/_0402_
*482 memory/_0403_
*483 memory/_0404_
*484 memory/_0405_
*485 memory/_0406_
*486 memory/_0407_
*487 memory/_0408_
*488 memory/_0409_
*489 memory/_0410_
*490 memory/_0411_
*491 memory/_0412_
*492 memory/_0413_
*493 memory/_0414_
*494 memory/_0415_
*495 memory/_0416_
*496 memory/_0417_
*497 memory/_0418_
*498 memory/_0419_
*499 memory/_0420_
*500 memory/_0421_
*501 memory/_0422_
*502 memory/_0423_
*503 memory/_0424_
*504 memory/_0425_
*505 memory/_0426_
*506 memory/_0427_
*507 memory/_0428_
*508 memory/_0429_
*509 memory/_0430_
*510 memory/_0431_
*511 memory/_0432_
*512 memory/_0433_
*513 memory/_0434_
*514 memory/_0435_
*515 memory/_0436_
*516 memory/_0437_
*517 memory/_0438_
*518 memory/_0439_
*519 memory/_0440_
*520 memory/_0441_
*521 memory/_0442_
*522 memory/_0443_
*523 memory/_0444_
*524 memory/_0445_
*525 memory/_0446_
*526 memory/_0447_
*527 memory/_0448_
*528 memory/_0449_
*529 memory/_0450_
*530 memory/_0451_
*531 memory/_0452_
*532 memory/_0453_
*533 memory/_0454_
*534 memory/_0455_
*535 memory/_0456_
*536 memory/_0457_
*537 memory/_0458_
*538 memory/_0459_
*539 memory/_0460_
*540 memory/_0461_
*541 memory/_0462_
*542 memory/_0463_
*543 memory/_0464_
*544 memory/_0465_
*545 memory/_0466_
*546 memory/_0467_
*547 memory/_0468_
*548 memory/_0469_
*549 memory/_0470_
*550 memory/_0471_
*551 memory/_0472_
*552 memory/_0473_
*553 memory/_0474_
*554 memory/_0475_
*555 memory/_0476_
*556 memory/_0477_
*557 memory/_0478_
*558 memory/_0479_
*559 memory/_0480_
*560 memory/_0481_
*561 memory/_0482_
*562 memory/_0483_
*563 memory/_0484_
*564 memory/_0485_
*565 memory/_0486_
*566 memory/_0487_
*567 memory/_0488_
*568 memory/_0489_
*569 memory/_0490_
*570 memory/_0491_
*571 memory/_0492_
*572 memory/_0493_
*573 memory/_0494_
*574 memory/_0495_
*575 memory/_0496_
*576 memory/_0497_
*577 memory/_0498_
*578 memory/_0499_
*579 memory/_0500_
*580 memory/_0501_
*581 memory/_0502_
*582 memory/_0503_
*583 memory/_0504_
*584 memory/_0505_
*585 memory/_0506_
*586 memory/_0507_
*587 memory/_0508_
*588 memory/_0509_
*589 memory/_0510_
*590 memory/_0511_
*591 memory/_0512_
*592 memory/_0513_
*593 memory/_0514_
*594 memory/_0515_
*595 memory/_0516_
*596 memory/_0517_
*597 memory/_0518_
*598 memory/_0519_
*599 memory/_0520_
*600 memory/_0521_
*601 memory/_0522_
*602 memory/_0523_
*603 memory/_0524_
*604 memory/_0525_
*605 memory/_0526_
*606 memory/_0527_
*607 memory/_0528_
*608 memory/_0529_
*609 memory/_0530_
*610 memory/_0531_
*611 memory/_0532_
*612 memory/_0533_
*613 memory/_0534_
*614 memory/_0535_
*615 memory/_0536_
*616 memory/_0537_
*617 memory/_0538_
*618 memory/_0539_
*619 memory/_0540_
*620 memory/_0541_
*621 memory/_0542_
*622 memory/_0543_
*623 memory/_0544_
*624 memory/_0545_
*625 memory/_0546_
*626 memory/_0547_
*627 memory/_0548_
*628 memory/_0549_
*629 memory/_0550_
*630 memory/_0551_
*631 memory/_0552_
*632 memory/_0553_
*633 memory/_0554_
*634 memory/_0555_
*635 memory/_0556_
*636 memory/_0557_
*637 memory/_0558_
*638 memory/_0559_
*639 memory/_0560_
*640 memory/_0561_
*641 memory/_0562_
*642 memory/_0563_
*643 memory/_0564_
*644 memory/_0565_
*645 memory/_0566_
*646 memory/_0567_
*647 memory/_0568_
*648 memory/_0569_
*649 memory/_0570_
*650 memory/_0571_
*651 memory/_0572_
*652 memory/_0573_
*653 memory/_0574_
*654 memory/_0575_
*655 memory/_0576_
*656 memory/_0577_
*657 memory/_0578_
*658 memory/_0579_
*659 memory/_0580_
*660 memory/_0581_
*661 memory/_0582_
*662 memory/_0583_
*663 memory/mem\[0\][0]
*664 memory/mem\[0\][1]
*665 memory/mem\[0\][2]
*666 memory/mem\[0\][3]
*667 memory/mem\[0\][4]
*668 memory/mem\[0\][5]
*669 memory/mem\[0\][6]
*670 memory/mem\[0\][7]
*671 memory/mem\[10\][0]
*672 memory/mem\[10\][1]
*673 memory/mem\[10\][2]
*674 memory/mem\[10\][3]
*675 memory/mem\[10\][4]
*676 memory/mem\[10\][5]
*677 memory/mem\[10\][6]
*678 memory/mem\[10\][7]
*679 memory/mem\[11\][0]
*680 memory/mem\[11\][1]
*681 memory/mem\[11\][2]
*682 memory/mem\[11\][3]
*683 memory/mem\[11\][4]
*684 memory/mem\[11\][5]
*685 memory/mem\[11\][6]
*686 memory/mem\[11\][7]
*687 memory/mem\[12\][0]
*688 memory/mem\[12\][1]
*689 memory/mem\[12\][2]
*690 memory/mem\[12\][3]
*691 memory/mem\[12\][4]
*692 memory/mem\[12\][5]
*693 memory/mem\[12\][6]
*694 memory/mem\[12\][7]
*695 memory/mem\[13\][0]
*696 memory/mem\[13\][1]
*697 memory/mem\[13\][2]
*698 memory/mem\[13\][3]
*699 memory/mem\[13\][4]
*700 memory/mem\[13\][5]
*701 memory/mem\[13\][6]
*702 memory/mem\[13\][7]
*703 memory/mem\[14\][0]
*704 memory/mem\[14\][1]
*705 memory/mem\[14\][2]
*706 memory/mem\[14\][3]
*707 memory/mem\[14\][4]
*708 memory/mem\[14\][5]
*709 memory/mem\[14\][6]
*710 memory/mem\[14\][7]
*711 memory/mem\[15\][0]
*712 memory/mem\[15\][1]
*713 memory/mem\[15\][2]
*714 memory/mem\[15\][3]
*715 memory/mem\[15\][4]
*716 memory/mem\[15\][5]
*717 memory/mem\[15\][6]
*718 memory/mem\[15\][7]
*719 memory/mem\[1\][0]
*720 memory/mem\[1\][1]
*721 memory/mem\[1\][2]
*722 memory/mem\[1\][3]
*723 memory/mem\[1\][4]
*724 memory/mem\[1\][5]
*725 memory/mem\[1\][6]
*726 memory/mem\[1\][7]
*727 memory/mem\[2\][0]
*728 memory/mem\[2\][1]
*729 memory/mem\[2\][2]
*730 memory/mem\[2\][3]
*731 memory/mem\[2\][4]
*732 memory/mem\[2\][5]
*733 memory/mem\[2\][6]
*734 memory/mem\[2\][7]
*735 memory/mem\[3\][0]
*736 memory/mem\[3\][1]
*737 memory/mem\[3\][2]
*738 memory/mem\[3\][3]
*739 memory/mem\[3\][4]
*740 memory/mem\[3\][5]
*741 memory/mem\[3\][6]
*742 memory/mem\[3\][7]
*743 memory/mem\[4\][0]
*744 memory/mem\[4\][1]
*745 memory/mem\[4\][2]
*746 memory/mem\[4\][3]
*747 memory/mem\[4\][4]
*748 memory/mem\[4\][5]
*749 memory/mem\[4\][6]
*750 memory/mem\[4\][7]
*751 memory/mem\[5\][0]
*752 memory/mem\[5\][1]
*753 memory/mem\[5\][2]
*754 memory/mem\[5\][3]
*755 memory/mem\[5\][4]
*756 memory/mem\[5\][5]
*757 memory/mem\[5\][6]
*758 memory/mem\[5\][7]
*759 memory/mem\[6\][0]
*760 memory/mem\[6\][1]
*761 memory/mem\[6\][2]
*762 memory/mem\[6\][3]
*763 memory/mem\[6\][4]
*764 memory/mem\[6\][5]
*765 memory/mem\[6\][6]
*766 memory/mem\[6\][7]
*767 memory/mem\[7\][0]
*768 memory/mem\[7\][1]
*769 memory/mem\[7\][2]
*770 memory/mem\[7\][3]
*771 memory/mem\[7\][4]
*772 memory/mem\[7\][5]
*773 memory/mem\[7\][6]
*774 memory/mem\[7\][7]
*775 memory/mem\[8\][0]
*776 memory/mem\[8\][1]
*777 memory/mem\[8\][2]
*778 memory/mem\[8\][3]
*779 memory/mem\[8\][4]
*780 memory/mem\[8\][5]
*781 memory/mem\[8\][6]
*782 memory/mem\[8\][7]
*783 memory/mem\[9\][0]
*784 memory/mem\[9\][1]
*785 memory/mem\[9\][2]
*786 memory/mem\[9\][3]
*787 memory/mem\[9\][4]
*788 memory/mem\[9\][5]
*789 memory/mem\[9\][6]
*790 memory/mem\[9\][7]
*823 memory/net1
*853 memory/net18
*856 memory/net21
*857 memory/net22
*858 memory/net23
*859 memory/net24
*860 memory/net25
*862 memory/net27
*825 memory/net3
*826 memory/net4
*827 memory/net5
*851 net
*855 net20
*861 net26
*20 rd_en
*791 rd_pointer/_00_
*792 rd_pointer/_01_
*793 rd_pointer/_02_
*794 rd_pointer/_03_
*795 rd_pointer/_04_
*796 rd_pointer/_05_
*797 rd_pointer/_06_
*798 rd_pointer/_07_
*799 rd_pointer/_08_
*800 rd_pointer/_09_
*801 rd_pointer/_10_
*802 rd_pointer/_11_
*803 rd_pointer/_12_
*804 rd_pointer/_13_
*805 rd_pointer/_14_
*21 rd_ptr[0]
*22 rd_ptr[1]
*23 rd_ptr[2]
*24 rd_ptr[3]
*25 rd_ptr_en
*26 rst
*27 wr_en
*806 wr_pointer/_00_
*807 wr_pointer/_01_
*808 wr_pointer/_02_
*809 wr_pointer/_03_
*810 wr_pointer/_04_
*811 wr_pointer/_05_
*812 wr_pointer/_06_
*813 wr_pointer/_07_
*814 wr_pointer/_08_
*815 wr_pointer/_09_
*816 wr_pointer/_10_
*817 wr_pointer/_11_
*818 wr_pointer/_12_
*819 wr_pointer/_13_
*820 wr_pointer/_14_
*824 wr_pointer/net16
*852 wr_pointer/net17
*28 wr_ptr[0]
*29 wr_ptr[1]
*30 wr_ptr[2]
*31 wr_ptr[3]
*32 wr_ptr_en
*1690 FILLER_0_1
*1696 FILLER_0_111
*1697 FILLER_0_143
*1698 FILLER_0_175
*1699 FILLER_0_207
*1700 FILLER_0_241
*1701 FILLER_0_273
*1702 FILLER_0_281
*1703 FILLER_0_300
*1691 FILLER_0_33
*1704 FILLER_0_332
*1705 FILLER_0_364
*1706 FILLER_0_396
*1692 FILLER_0_41
*1707 FILLER_0_412
*1708 FILLER_0_420
*1693 FILLER_0_43
*1694 FILLER_0_47
*1695 FILLER_0_79
*2022 FILLER_10_1
*2039 FILLER_10_102
*2040 FILLER_10_134
*2041 FILLER_10_144
*2023 FILLER_10_17
*2042 FILLER_10_176
*2043 FILLER_10_180
*2044 FILLER_10_182
*2045 FILLER_10_188
*2046 FILLER_10_190
*2047 FILLER_10_193
*2024 FILLER_10_21
*2048 FILLER_10_225
*2025 FILLER_10_23
*2049 FILLER_10_237
*2050 FILLER_10_243
*2051 FILLER_10_275
*2052 FILLER_10_283
*2053 FILLER_10_287
*2054 FILLER_10_289
*2055 FILLER_10_292
*2056 FILLER_10_296
*2026 FILLER_10_30
*2027 FILLER_10_34
*2057 FILLER_10_345
*2058 FILLER_10_361
*2059 FILLER_10_386
*2028 FILLER_10_39
*2060 FILLER_10_394
*2061 FILLER_10_400
*2029 FILLER_10_41
*2062 FILLER_10_416
*2063 FILLER_10_420
*2030 FILLER_10_59
*2031 FILLER_10_67
*2032 FILLER_10_71
*2033 FILLER_10_73
*2034 FILLER_10_79
*2035 FILLER_10_83
*2036 FILLER_10_86
*2037 FILLER_10_90
*2038 FILLER_10_96
*2064 FILLER_11_1
*2073 FILLER_11_108
*2074 FILLER_11_124
*2075 FILLER_11_149
*2065 FILLER_11_17
*2076 FILLER_11_181
*2077 FILLER_11_189
*2078 FILLER_11_193
*2079 FILLER_11_200
*2080 FILLER_11_216
*2081 FILLER_11_224
*2082 FILLER_11_228
*2083 FILLER_11_232
*2084 FILLER_11_239
*2066 FILLER_11_25
*2085 FILLER_11_271
*2086 FILLER_11_287
*2087 FILLER_11_294
*2067 FILLER_11_31
*2088 FILLER_11_326
*2089 FILLER_11_330
*2090 FILLER_11_332
*2091 FILLER_11_335
*2092 FILLER_11_339
*2093 FILLER_11_355
*2094 FILLER_11_363
*2095 FILLER_11_367
*2096 FILLER_11_373
*2097 FILLER_11_379
*2098 FILLER_11_387
*2068 FILLER_11_39
*2099 FILLER_11_393
*2100 FILLER_11_397
*2101 FILLER_11_399
*2102 FILLER_11_402
*2069 FILLER_11_41
*2103 FILLER_11_418
*2104 FILLER_11_420
*2070 FILLER_11_45
*2071 FILLER_11_51
*2072 FILLER_11_83
*2105 FILLER_12_1
*2115 FILLER_12_114
*2116 FILLER_12_130
*2117 FILLER_12_134
*2118 FILLER_12_136
*2119 FILLER_12_139
*2120 FILLER_12_146
*2106 FILLER_12_17
*2121 FILLER_12_178
*2107 FILLER_12_21
*2122 FILLER_12_210
*2123 FILLER_12_226
*2124 FILLER_12_228
*2108 FILLER_12_23
*2125 FILLER_12_233
*2126 FILLER_12_237
*2127 FILLER_12_240
*2109 FILLER_12_27
*2128 FILLER_12_272
*2129 FILLER_12_274
*2130 FILLER_12_277
*2131 FILLER_12_281
*2132 FILLER_12_283
*2133 FILLER_12_301
*2134 FILLER_12_333
*2135 FILLER_12_335
*2136 FILLER_12_341
*2110 FILLER_12_35
*2137 FILLER_12_373
*2138 FILLER_12_389
*2111 FILLER_12_39
*2139 FILLER_12_393
*2140 FILLER_12_412
*2141 FILLER_12_420
*2112 FILLER_12_45
*2113 FILLER_12_50
*2114 FILLER_12_82
*2142 FILLER_13_1
*2150 FILLER_13_100
*2151 FILLER_13_103
*2152 FILLER_13_119
*2153 FILLER_13_127
*2154 FILLER_13_131
*2155 FILLER_13_138
*2156 FILLER_13_142
*2157 FILLER_13_158
*2158 FILLER_13_162
*2159 FILLER_13_164
*2160 FILLER_13_172
*2161 FILLER_13_180
*2162 FILLER_13_187
*2163 FILLER_13_191
*2164 FILLER_13_198
*2165 FILLER_13_247
*2166 FILLER_13_263
*2167 FILLER_13_271
*2168 FILLER_13_282
*2169 FILLER_13_286
*2170 FILLER_13_292
*2171 FILLER_13_324
*2143 FILLER_13_33
*2172 FILLER_13_337
*2173 FILLER_13_342
*2174 FILLER_13_374
*2175 FILLER_13_390
*2176 FILLER_13_394
*2177 FILLER_13_400
*2178 FILLER_13_416
*2179 FILLER_13_420
*2144 FILLER_13_44
*2145 FILLER_13_52
*2146 FILLER_13_68
*2147 FILLER_13_81
*2148 FILLER_13_87
*2149 FILLER_13_96
*2180 FILLER_14_1
*2190 FILLER_14_109
*2191 FILLER_14_125
*2192 FILLER_14_129
*2193 FILLER_14_147
*2194 FILLER_14_163
*2181 FILLER_14_17
*2195 FILLER_14_172
*2196 FILLER_14_193
*2182 FILLER_14_21
*2197 FILLER_14_225
*2183 FILLER_14_23
*2198 FILLER_14_243
*2199 FILLER_14_259
*2200 FILLER_14_267
*2201 FILLER_14_271
*2184 FILLER_14_28
*2202 FILLER_14_290
*2185 FILLER_14_30
*2203 FILLER_14_313
*2204 FILLER_14_329
*2205 FILLER_14_338
*2186 FILLER_14_35
*2206 FILLER_14_354
*2207 FILLER_14_362
*2208 FILLER_14_366
*2209 FILLER_14_372
*2210 FILLER_14_374
*2211 FILLER_14_377
*2212 FILLER_14_393
*2213 FILLER_14_397
*2214 FILLER_14_399
*2215 FILLER_14_402
*2216 FILLER_14_418
*2217 FILLER_14_420
*2187 FILLER_14_67
*2188 FILLER_14_83
*2189 FILLER_14_91
*2218 FILLER_15_1
*2226 FILLER_15_102
*2227 FILLER_15_118
*2228 FILLER_15_126
*2229 FILLER_15_130
*2230 FILLER_15_139
*2231 FILLER_15_146
*2219 FILLER_15_17
*2232 FILLER_15_178
*2233 FILLER_15_210
*2234 FILLER_15_226
*2235 FILLER_15_234
*2236 FILLER_15_239
*2220 FILLER_15_25
*2237 FILLER_15_271
*2238 FILLER_15_279
*2239 FILLER_15_283
*2240 FILLER_15_285
*2241 FILLER_15_291
*2242 FILLER_15_299
*2243 FILLER_15_303
*2244 FILLER_15_305
*2245 FILLER_15_308
*2221 FILLER_15_32
*2246 FILLER_15_340
*2247 FILLER_15_356
*2248 FILLER_15_364
*2249 FILLER_15_366
*2250 FILLER_15_384
*2251 FILLER_15_386
*2252 FILLER_15_392
*2253 FILLER_15_394
*2254 FILLER_15_412
*2255 FILLER_15_420
*2222 FILLER_15_64
*2223 FILLER_15_80
*2224 FILLER_15_88
*2225 FILLER_15_92
*2256 FILLER_16_1
*2265 FILLER_16_109
*2266 FILLER_16_125
*2267 FILLER_16_133
*2268 FILLER_16_137
*2269 FILLER_16_142
*2257 FILLER_16_17
*2270 FILLER_16_174
*2271 FILLER_16_185
*2258 FILLER_16_19
*2272 FILLER_16_217
*2273 FILLER_16_225
*2274 FILLER_16_229
*2259 FILLER_16_23
*2275 FILLER_16_231
*2276 FILLER_16_234
*2277 FILLER_16_266
*2260 FILLER_16_27
*2278 FILLER_16_284
*2279 FILLER_16_292
*2280 FILLER_16_294
*2281 FILLER_16_297
*2282 FILLER_16_329
*2261 FILLER_16_33
*2283 FILLER_16_333
*2284 FILLER_16_335
*2285 FILLER_16_341
*2286 FILLER_16_373
*2287 FILLER_16_405
*2262 FILLER_16_65
*2263 FILLER_16_74
*2264 FILLER_16_90
*2288 FILLER_17_1
*2301 FILLER_17_103
*2302 FILLER_17_119
*2303 FILLER_17_127
*2304 FILLER_17_138
*2305 FILLER_17_142
*2289 FILLER_17_17
*2306 FILLER_17_174
*2307 FILLER_17_178
*2308 FILLER_17_180
*2309 FILLER_17_186
*2310 FILLER_17_188
*2311 FILLER_17_191
*2312 FILLER_17_200
*2290 FILLER_17_21
*2313 FILLER_17_216
*2314 FILLER_17_220
*2315 FILLER_17_225
*2316 FILLER_17_229
*2317 FILLER_17_236
*2291 FILLER_17_26
*2318 FILLER_17_268
*2319 FILLER_17_276
*2292 FILLER_17_28
*2320 FILLER_17_283
*2321 FILLER_17_289
*2322 FILLER_17_291
*2323 FILLER_17_297
*2293 FILLER_17_32
*2324 FILLER_17_329
*2294 FILLER_17_34
*2325 FILLER_17_348
*2326 FILLER_17_380
*2327 FILLER_17_412
*2295 FILLER_17_42
*2328 FILLER_17_420
*2296 FILLER_17_74
*2297 FILLER_17_78
*2298 FILLER_17_82
*2299 FILLER_17_95
*2300 FILLER_17_99
*2329 FILLER_18_1
*2337 FILLER_18_103
*2338 FILLER_18_119
*2339 FILLER_18_127
*2331 FILLER_18_13
*2340 FILLER_18_148
*2332 FILLER_18_15
*2341 FILLER_18_164
*2342 FILLER_18_172
*2343 FILLER_18_174
*2333 FILLER_18_19
*2344 FILLER_18_192
*2334 FILLER_18_21
*2345 FILLER_18_224
*2346 FILLER_18_228
*2347 FILLER_18_235
*2348 FILLER_18_267
*2349 FILLER_18_271
*2350 FILLER_18_273
*2351 FILLER_18_279
*2352 FILLER_18_283
*2353 FILLER_18_302
*2354 FILLER_18_318
*2355 FILLER_18_326
*2356 FILLER_18_330
*2357 FILLER_18_338
*2358 FILLER_18_344
*2359 FILLER_18_376
*2360 FILLER_18_386
*2335 FILLER_18_39
*2361 FILLER_18_418
*2362 FILLER_18_420
*2336 FILLER_18_71
*2330 FILLER_18_9
*2363 FILLER_19_1
*2375 FILLER_19_106
*2376 FILLER_19_122
*2365 FILLER_19_13
*2377 FILLER_19_130
*2378 FILLER_19_134
*2379 FILLER_19_141
*2366 FILLER_19_15
*2380 FILLER_19_157
*2381 FILLER_19_161
*2382 FILLER_19_163
*2383 FILLER_19_171
*2384 FILLER_19_173
*2385 FILLER_19_191
*2367 FILLER_19_20
*2386 FILLER_19_207
*2387 FILLER_19_215
*2388 FILLER_19_223
*2389 FILLER_19_228
*2390 FILLER_19_234
*2391 FILLER_19_266
*2392 FILLER_19_274
*2393 FILLER_19_278
*2368 FILLER_19_28
*2394 FILLER_19_283
*2395 FILLER_19_285
*2396 FILLER_19_303
*2397 FILLER_19_319
*2398 FILLER_19_327
*2399 FILLER_19_334
*2400 FILLER_19_338
*2401 FILLER_19_375
*2402 FILLER_19_379
*2403 FILLER_19_381
*2404 FILLER_19_384
*2405 FILLER_19_392
*2406 FILLER_19_398
*2407 FILLER_19_404
*2369 FILLER_19_42
*2408 FILLER_19_420
*2370 FILLER_19_58
*2371 FILLER_19_60
*2372 FILLER_19_64
*2373 FILLER_19_80
*2374 FILLER_19_88
*2364 FILLER_19_9
*1709 FILLER_1_1
*1720 FILLER_1_127
*1711 FILLER_1_13
*1721 FILLER_1_143
*1722 FILLER_1_147
*1712 FILLER_1_15
*1723 FILLER_1_150
*1724 FILLER_1_182
*1713 FILLER_1_19
*1725 FILLER_1_214
*1726 FILLER_1_230
*1727 FILLER_1_251
*1728 FILLER_1_267
*1729 FILLER_1_292
*1730 FILLER_1_324
*1731 FILLER_1_332
*1732 FILLER_1_336
*1733 FILLER_1_338
*1714 FILLER_1_35
*1734 FILLER_1_356
*1735 FILLER_1_388
*1715 FILLER_1_39
*1716 FILLER_1_41
*1736 FILLER_1_420
*1717 FILLER_1_45
*1718 FILLER_1_77
*1710 FILLER_1_9
*1719 FILLER_1_95
*2409 FILLER_20_1
*2419 FILLER_20_100
*2420 FILLER_20_116
*2421 FILLER_20_124
*2422 FILLER_20_128
*2423 FILLER_20_130
*2424 FILLER_20_138
*2425 FILLER_20_151
*2426 FILLER_20_159
*2427 FILLER_20_163
*2428 FILLER_20_169
*2410 FILLER_20_17
*2429 FILLER_20_177
*2430 FILLER_20_179
*2431 FILLER_20_185
*2432 FILLER_20_189
*2411 FILLER_20_19
*2433 FILLER_20_191
*2434 FILLER_20_197
*2435 FILLER_20_213
*2436 FILLER_20_221
*2437 FILLER_20_242
*2438 FILLER_20_274
*2439 FILLER_20_280
*2440 FILLER_20_288
*2441 FILLER_20_292
*2442 FILLER_20_294
*2443 FILLER_20_297
*2444 FILLER_20_320
*2445 FILLER_20_328
*2412 FILLER_20_33
*2446 FILLER_20_332
*2447 FILLER_20_337
*2448 FILLER_20_369
*2449 FILLER_20_387
*2450 FILLER_20_412
*2451 FILLER_20_420
*2413 FILLER_20_70
*2414 FILLER_20_74
*2415 FILLER_20_78
*2416 FILLER_20_86
*2417 FILLER_20_93
*2418 FILLER_20_97
*2452 FILLER_21_1
*2464 FILLER_21_100
*2465 FILLER_21_106
*2466 FILLER_21_122
*2467 FILLER_21_130
*2468 FILLER_21_134
*2469 FILLER_21_152
*2453 FILLER_21_17
*2470 FILLER_21_184
*2454 FILLER_21_20
*2471 FILLER_21_216
*2472 FILLER_21_224
*2473 FILLER_21_228
*2474 FILLER_21_230
*2475 FILLER_21_236
*2455 FILLER_21_24
*2456 FILLER_21_26
*2476 FILLER_21_285
*2477 FILLER_21_289
*2478 FILLER_21_291
*2479 FILLER_21_297
*2457 FILLER_21_31
*2480 FILLER_21_316
*2481 FILLER_21_332
*2482 FILLER_21_337
*2458 FILLER_21_36
*2483 FILLER_21_369
*2484 FILLER_21_401
*2485 FILLER_21_417
*2459 FILLER_21_73
*2460 FILLER_21_77
*2461 FILLER_21_84
*2462 FILLER_21_88
*2463 FILLER_21_96
*2486 FILLER_22_1
*2494 FILLER_22_107
*2495 FILLER_22_126
*2496 FILLER_22_134
*2497 FILLER_22_136
*2498 FILLER_22_142
*2499 FILLER_22_146
*2487 FILLER_22_17
*2500 FILLER_22_178
*2501 FILLER_22_210
*2502 FILLER_22_243
*2488 FILLER_22_25
*2503 FILLER_22_275
*2504 FILLER_22_279
*2505 FILLER_22_285
*2489 FILLER_22_29
*2506 FILLER_22_317
*2507 FILLER_22_342
*2508 FILLER_22_374
*2509 FILLER_22_378
*2510 FILLER_22_385
*2511 FILLER_22_417
*2490 FILLER_22_47
*2491 FILLER_22_79
*2492 FILLER_22_81
*2493 FILLER_22_91
*2512 FILLER_23_1
*2520 FILLER_23_113
*2521 FILLER_23_115
*2522 FILLER_23_118
*2514 FILLER_23_13
*2523 FILLER_23_134
*2524 FILLER_23_136
*2525 FILLER_23_142
*2515 FILLER_23_15
*2526 FILLER_23_174
*2527 FILLER_23_178
*2528 FILLER_23_180
*2529 FILLER_23_186
*2530 FILLER_23_218
*2531 FILLER_23_222
*2532 FILLER_23_224
*2533 FILLER_23_229
*2534 FILLER_23_235
*2535 FILLER_23_267
*2536 FILLER_23_275
*2537 FILLER_23_281
*2538 FILLER_23_313
*2516 FILLER_23_33
*2539 FILLER_23_345
*2540 FILLER_23_361
*2541 FILLER_23_374
*2542 FILLER_23_378
*2543 FILLER_23_381
*2544 FILLER_23_389
*2545 FILLER_23_398
*2546 FILLER_23_404
*2547 FILLER_23_420
*2517 FILLER_23_65
*2518 FILLER_23_86
*2513 FILLER_23_9
*2519 FILLER_23_97
*2548 FILLER_24_1
*2558 FILLER_24_103
*2559 FILLER_24_135
*2560 FILLER_24_139
*2561 FILLER_24_143
*2562 FILLER_24_150
*2549 FILLER_24_17
*2563 FILLER_24_182
*2564 FILLER_24_195
*2565 FILLER_24_203
*2566 FILLER_24_209
*2550 FILLER_24_21
*2567 FILLER_24_225
*2568 FILLER_24_232
*2569 FILLER_24_264
*2551 FILLER_24_27
*2570 FILLER_24_272
*2571 FILLER_24_274
*2572 FILLER_24_282
*2573 FILLER_24_289
*2552 FILLER_24_29
*2574 FILLER_24_302
*2575 FILLER_24_318
*2576 FILLER_24_326
*2553 FILLER_24_33
*2577 FILLER_24_330
*2578 FILLER_24_338
*2579 FILLER_24_354
*2580 FILLER_24_362
*2581 FILLER_24_383
*2554 FILLER_24_39
*2582 FILLER_24_391
*2583 FILLER_24_412
*2584 FILLER_24_420
*2555 FILLER_24_71
*2556 FILLER_24_84
*2557 FILLER_24_88
*2585 FILLER_25_1
*2595 FILLER_25_120
*2596 FILLER_25_128
*2597 FILLER_25_149
*2586 FILLER_25_17
*2598 FILLER_25_186
*2599 FILLER_25_190
*2600 FILLER_25_206
*2601 FILLER_25_215
*2602 FILLER_25_217
*2603 FILLER_25_229
*2604 FILLER_25_237
*2605 FILLER_25_239
*2606 FILLER_25_243
*2607 FILLER_25_259
*2608 FILLER_25_267
*2609 FILLER_25_276
*2610 FILLER_25_278
*2611 FILLER_25_283
*2612 FILLER_25_287
*2587 FILLER_25_29
*2613 FILLER_25_297
*2614 FILLER_25_329
*2588 FILLER_25_33
*2615 FILLER_25_342
*2616 FILLER_25_374
*2589 FILLER_25_40
*2617 FILLER_25_406
*2618 FILLER_25_414
*2619 FILLER_25_418
*2620 FILLER_25_420
*2590 FILLER_25_72
*2591 FILLER_25_76
*2592 FILLER_25_78
*2593 FILLER_25_81
*2594 FILLER_25_88
*2621 FILLER_26_1
*2631 FILLER_26_118
*2632 FILLER_26_134
*2633 FILLER_26_138
*2634 FILLER_26_145
*2635 FILLER_26_161
*2636 FILLER_26_169
*2622 FILLER_26_17
*2637 FILLER_26_173
*2638 FILLER_26_192
*2639 FILLER_26_224
*2640 FILLER_26_230
*2641 FILLER_26_238
*2642 FILLER_26_242
*2643 FILLER_26_246
*2623 FILLER_26_25
*2644 FILLER_26_254
*2645 FILLER_26_258
*2646 FILLER_26_260
*2647 FILLER_26_266
*2648 FILLER_26_274
*2649 FILLER_26_277
*2650 FILLER_26_279
*2651 FILLER_26_285
*2624 FILLER_26_29
*2652 FILLER_26_292
*2653 FILLER_26_300
*2654 FILLER_26_304
*2625 FILLER_26_31
*2655 FILLER_26_320
*2656 FILLER_26_328
*2657 FILLER_26_330
*2658 FILLER_26_336
*2659 FILLER_26_340
*2660 FILLER_26_342
*2661 FILLER_26_345
*2626 FILLER_26_36
*2662 FILLER_26_361
*2663 FILLER_26_369
*2664 FILLER_26_376
*2665 FILLER_26_392
*2666 FILLER_26_394
*2667 FILLER_26_412
*2668 FILLER_26_420
*2627 FILLER_26_68
*2628 FILLER_26_76
*2629 FILLER_26_79
*2630 FILLER_26_86
*2669 FILLER_27_1
*2677 FILLER_27_128
*2678 FILLER_27_160
*2670 FILLER_27_17
*2679 FILLER_27_192
*2680 FILLER_27_224
*2681 FILLER_27_243
*2682 FILLER_27_254
*2683 FILLER_27_262
*2684 FILLER_27_281
*2685 FILLER_27_289
*2671 FILLER_27_29
*2686 FILLER_27_293
*2687 FILLER_27_311
*2688 FILLER_27_327
*2689 FILLER_27_345
*2672 FILLER_27_36
*2690 FILLER_27_377
*2691 FILLER_27_381
*2692 FILLER_27_384
*2693 FILLER_27_392
*2694 FILLER_27_398
*2695 FILLER_27_404
*2696 FILLER_27_420
*2673 FILLER_27_68
*2674 FILLER_27_76
*2675 FILLER_27_85
*2676 FILLER_27_96
*2697 FILLER_28_1
*2708 FILLER_28_117
*2709 FILLER_28_138
*2698 FILLER_28_17
*2710 FILLER_28_170
*2711 FILLER_28_202
*2712 FILLER_28_204
*2699 FILLER_28_21
*2713 FILLER_28_219
*2714 FILLER_28_235
*2715 FILLER_28_243
*2716 FILLER_28_247
*2717 FILLER_28_256
*2700 FILLER_28_27
*2718 FILLER_28_288
*2701 FILLER_28_29
*2719 FILLER_28_320
*2720 FILLER_28_328
*2721 FILLER_28_332
*2702 FILLER_28_34
*2722 FILLER_28_350
*2723 FILLER_28_366
*2724 FILLER_28_374
*2725 FILLER_28_378
*2726 FILLER_28_386
*2727 FILLER_28_418
*2728 FILLER_28_420
*2703 FILLER_28_66
*2704 FILLER_28_74
*2705 FILLER_28_78
*2706 FILLER_28_81
*2707 FILLER_28_85
*2729 FILLER_29_1
*2738 FILLER_29_119
*2739 FILLER_29_127
*2731 FILLER_29_13
*2740 FILLER_29_133
*2741 FILLER_29_149
*2742 FILLER_29_170
*2743 FILLER_29_202
*2744 FILLER_29_211
*2745 FILLER_29_221
*2746 FILLER_29_253
*2747 FILLER_29_285
*2748 FILLER_29_317
*2732 FILLER_29_32
*2749 FILLER_29_349
*2750 FILLER_29_365
*2751 FILLER_29_369
*2733 FILLER_29_37
*2752 FILLER_29_387
*2753 FILLER_29_419
*2734 FILLER_29_69
*2735 FILLER_29_77
*2736 FILLER_29_81
*2737 FILLER_29_87
*2730 FILLER_29_9
*1737 FILLER_2_1
*1750 FILLER_2_102
*1751 FILLER_2_104
*1752 FILLER_2_107
*1753 FILLER_2_139
*1754 FILLER_2_157
*1755 FILLER_2_189
*1756 FILLER_2_207
*1757 FILLER_2_223
*1758 FILLER_2_231
*1759 FILLER_2_249
*1739 FILLER_2_27
*1760 FILLER_2_281
*1761 FILLER_2_285
*1762 FILLER_2_291
*1763 FILLER_2_295
*1764 FILLER_2_311
*1765 FILLER_2_315
*1766 FILLER_2_319
*1767 FILLER_2_335
*1768 FILLER_2_343
*1769 FILLER_2_349
*1740 FILLER_2_35
*1770 FILLER_2_381
*1741 FILLER_2_39
*1771 FILLER_2_413
*1742 FILLER_2_57
*1743 FILLER_2_73
*1744 FILLER_2_81
*1745 FILLER_2_83
*1746 FILLER_2_89
*1738 FILLER_2_9
*1747 FILLER_2_91
*1748 FILLER_2_94
*1749 FILLER_2_96
*2754 FILLER_30_1
*2761 FILLER_30_116
*2762 FILLER_30_124
*2763 FILLER_30_126
*2764 FILLER_30_131
*2765 FILLER_30_135
*2766 FILLER_30_151
*2767 FILLER_30_160
*2768 FILLER_30_164
*2769 FILLER_30_166
*2770 FILLER_30_169
*2755 FILLER_30_17
*2771 FILLER_30_173
*2772 FILLER_30_175
*2773 FILLER_30_180
*2774 FILLER_30_196
*2775 FILLER_30_204
*2756 FILLER_30_21
*2776 FILLER_30_211
*2777 FILLER_30_243
*2778 FILLER_30_275
*2779 FILLER_30_291
*2780 FILLER_30_301
*2781 FILLER_30_333
*2782 FILLER_30_365
*2783 FILLER_30_381
*2784 FILLER_30_389
*2785 FILLER_30_393
*2786 FILLER_30_399
*2757 FILLER_30_40
*2787 FILLER_30_415
*2788 FILLER_30_419
*2758 FILLER_30_72
*2759 FILLER_30_77
*2760 FILLER_30_84
*2789 FILLER_31_1
*2798 FILLER_31_100
*2799 FILLER_31_102
*2800 FILLER_31_108
*2801 FILLER_31_116
*2802 FILLER_31_120
*2803 FILLER_31_127
*2804 FILLER_31_131
*2805 FILLER_31_163
*2806 FILLER_31_167
*2790 FILLER_31_17
*2807 FILLER_31_174
*2808 FILLER_31_178
*2809 FILLER_31_210
*2810 FILLER_31_218
*2811 FILLER_31_226
*2812 FILLER_31_230
*2813 FILLER_31_235
*2814 FILLER_31_242
*2791 FILLER_31_25
*2815 FILLER_31_250
*2816 FILLER_31_254
*2817 FILLER_31_256
*2818 FILLER_31_261
*2792 FILLER_31_27
*2819 FILLER_31_277
*2820 FILLER_31_285
*2821 FILLER_31_289
*2822 FILLER_31_295
*2823 FILLER_31_311
*2824 FILLER_31_315
*2793 FILLER_31_32
*2825 FILLER_31_334
*2826 FILLER_31_350
*2827 FILLER_31_354
*2828 FILLER_31_360
*2829 FILLER_31_376
*2830 FILLER_31_384
*2831 FILLER_31_388
*2832 FILLER_31_406
*2833 FILLER_31_414
*2834 FILLER_31_418
*2835 FILLER_31_420
*2794 FILLER_31_64
*2795 FILLER_31_80
*2796 FILLER_31_82
*2797 FILLER_31_92
*2836 FILLER_32_1
*2844 FILLER_32_112
*2845 FILLER_32_116
*2846 FILLER_32_118
*2847 FILLER_32_136
*2848 FILLER_32_168
*2837 FILLER_32_17
*2849 FILLER_32_186
*2850 FILLER_32_218
*2851 FILLER_32_226
*2852 FILLER_32_230
*2853 FILLER_32_248
*2838 FILLER_32_25
*2854 FILLER_32_281
*2855 FILLER_32_285
*2856 FILLER_32_287
*2857 FILLER_32_292
*2858 FILLER_32_308
*2859 FILLER_32_310
*2860 FILLER_32_316
*2839 FILLER_32_32
*2861 FILLER_32_323
*2862 FILLER_32_325
*2863 FILLER_32_328
*2864 FILLER_32_344
*2865 FILLER_32_348
*2866 FILLER_32_350
*2867 FILLER_32_368
*2868 FILLER_32_384
*2869 FILLER_32_388
*2870 FILLER_32_394
*2871 FILLER_32_398
*2872 FILLER_32_402
*2873 FILLER_32_418
*2874 FILLER_32_420
*2840 FILLER_32_64
*2841 FILLER_32_80
*2842 FILLER_32_87
*2843 FILLER_32_96
*2875 FILLER_33_1
*2884 FILLER_33_122
*2885 FILLER_33_124
*2886 FILLER_33_130
*2887 FILLER_33_162
*2876 FILLER_33_17
*2888 FILLER_33_170
*2889 FILLER_33_176
*2890 FILLER_33_208
*2891 FILLER_33_224
*2892 FILLER_33_232
*2893 FILLER_33_236
*2894 FILLER_33_241
*2877 FILLER_33_25
*2895 FILLER_33_257
*2896 FILLER_33_265
*2897 FILLER_33_271
*2898 FILLER_33_273
*2899 FILLER_33_276
*2900 FILLER_33_296
*2901 FILLER_33_317
*2902 FILLER_33_321
*2878 FILLER_33_34
*2903 FILLER_33_353
*2904 FILLER_33_357
*2905 FILLER_33_361
*2906 FILLER_33_393
*2907 FILLER_33_400
*2908 FILLER_33_416
*2909 FILLER_33_420
*2879 FILLER_33_43
*2880 FILLER_33_75
*2881 FILLER_33_79
*2882 FILLER_33_83
*2883 FILLER_33_90
*2910 FILLER_34_1
*2918 FILLER_34_119
*2919 FILLER_34_151
*2911 FILLER_34_17
*2920 FILLER_34_183
*2921 FILLER_34_199
*2922 FILLER_34_203
*2923 FILLER_34_205
*2924 FILLER_34_214
*2925 FILLER_34_246
*2912 FILLER_34_25
*2913 FILLER_34_27
*2926 FILLER_34_278
*2927 FILLER_34_294
*2914 FILLER_34_30
*2928 FILLER_34_302
*2929 FILLER_34_309
*2930 FILLER_34_328
*2915 FILLER_34_34
*2931 FILLER_34_344
*2932 FILLER_34_348
*2933 FILLER_34_367
*2934 FILLER_34_383
*2935 FILLER_34_391
*2936 FILLER_34_393
*2937 FILLER_34_411
*2938 FILLER_34_419
*2916 FILLER_34_66
*2917 FILLER_34_87
*2939 FILLER_35_1
*2946 FILLER_35_113
*2947 FILLER_35_145
*2948 FILLER_35_161
*2949 FILLER_35_165
*2950 FILLER_35_167
*2940 FILLER_35_17
*2951 FILLER_35_174
*2952 FILLER_35_190
*2953 FILLER_35_198
*2954 FILLER_35_204
*2955 FILLER_35_220
*2956 FILLER_35_232
*2957 FILLER_35_269
*2958 FILLER_35_273
*2959 FILLER_35_281
*2960 FILLER_35_289
*2961 FILLER_35_321
*2941 FILLER_35_35
*2962 FILLER_35_353
*2963 FILLER_35_360
*2964 FILLER_35_392
*2965 FILLER_35_408
*2966 FILLER_35_416
*2967 FILLER_35_420
*2942 FILLER_35_67
*2943 FILLER_35_71
*2944 FILLER_35_77
*2945 FILLER_35_81
*2968 FILLER_36_1
*2973 FILLER_36_118
*2974 FILLER_36_122
*2975 FILLER_36_129
*2976 FILLER_36_145
*2977 FILLER_36_158
*2978 FILLER_36_162
*2979 FILLER_36_165
*2980 FILLER_36_169
*2969 FILLER_36_17
*2981 FILLER_36_175
*2982 FILLER_36_177
*2983 FILLER_36_180
*2970 FILLER_36_19
*2984 FILLER_36_196
*2985 FILLER_36_201
*2986 FILLER_36_217
*2987 FILLER_36_223
*2988 FILLER_36_255
*2989 FILLER_36_259
*2990 FILLER_36_277
*2991 FILLER_36_309
*2992 FILLER_36_341
*2993 FILLER_36_349
*2994 FILLER_36_353
*2995 FILLER_36_359
*2971 FILLER_36_37
*2996 FILLER_36_391
*2997 FILLER_36_407
*2998 FILLER_36_415
*2999 FILLER_36_419
*2972 FILLER_36_86
*3000 FILLER_37_1
*3008 FILLER_37_102
*3009 FILLER_37_123
*3010 FILLER_37_129
*3011 FILLER_37_145
*3012 FILLER_37_166
*3001 FILLER_37_17
*3013 FILLER_37_185
*3014 FILLER_37_201
*3015 FILLER_37_209
*3016 FILLER_37_213
*3017 FILLER_37_231
*3002 FILLER_37_25
*3018 FILLER_37_263
*3019 FILLER_37_274
*3020 FILLER_37_290
*3021 FILLER_37_298
*3022 FILLER_37_302
*3023 FILLER_37_311
*3003 FILLER_37_32
*3024 FILLER_37_343
*3025 FILLER_37_375
*3026 FILLER_37_383
*3027 FILLER_37_387
*3028 FILLER_37_389
*3029 FILLER_37_407
*3030 FILLER_37_415
*3031 FILLER_37_419
*3004 FILLER_37_64
*3005 FILLER_37_72
*3006 FILLER_37_78
*3007 FILLER_37_94
*3032 FILLER_38_1
*3040 FILLER_38_106
*3041 FILLER_38_110
*3042 FILLER_38_116
*3043 FILLER_38_120
*3044 FILLER_38_124
*3045 FILLER_38_130
*3046 FILLER_38_138
*3047 FILLER_38_142
*3048 FILLER_38_144
*3049 FILLER_38_152
*3033 FILLER_38_17
*3050 FILLER_38_184
*3051 FILLER_38_216
*3052 FILLER_38_220
*3053 FILLER_38_222
*3054 FILLER_38_227
*3034 FILLER_38_25
*3055 FILLER_38_259
*3056 FILLER_38_278
*3035 FILLER_38_28
*3057 FILLER_38_310
*3036 FILLER_38_32
*3058 FILLER_38_328
*3037 FILLER_38_36
*3059 FILLER_38_360
*3060 FILLER_38_367
*3061 FILLER_38_383
*3062 FILLER_38_396
*3063 FILLER_38_400
*3064 FILLER_38_416
*3038 FILLER_38_42
*3065 FILLER_38_420
*3039 FILLER_38_74
*3066 FILLER_39_1
*3071 FILLER_39_117
*3072 FILLER_39_135
*3073 FILLER_39_143
*3074 FILLER_39_150
*3067 FILLER_39_17
*3075 FILLER_39_182
*3076 FILLER_39_198
*3077 FILLER_39_206
*3078 FILLER_39_210
*3079 FILLER_39_215
*3080 FILLER_39_223
*3081 FILLER_39_228
*3082 FILLER_39_260
*3083 FILLER_39_269
*3084 FILLER_39_275
*3085 FILLER_39_283
*3086 FILLER_39_291
*3087 FILLER_39_299
*3088 FILLER_39_303
*3089 FILLER_39_305
*3090 FILLER_39_311
*3091 FILLER_39_318
*3092 FILLER_39_320
*3093 FILLER_39_323
*3094 FILLER_39_339
*3095 FILLER_39_347
*3068 FILLER_39_35
*3096 FILLER_39_352
*3097 FILLER_39_356
*3098 FILLER_39_363
*3099 FILLER_39_370
*3100 FILLER_39_386
*3101 FILLER_39_394
*3102 FILLER_39_400
*3103 FILLER_39_404
*3104 FILLER_39_420
*3069 FILLER_39_67
*3070 FILLER_39_85
*1772 FILLER_3_1
*1783 FILLER_3_100
*1784 FILLER_3_106
*1785 FILLER_3_138
*1786 FILLER_3_140
*1787 FILLER_3_146
*1788 FILLER_3_148
*1789 FILLER_3_151
*1790 FILLER_3_153
*1791 FILLER_3_159
*1792 FILLER_3_175
*1793 FILLER_3_183
*1794 FILLER_3_185
*1795 FILLER_3_191
*1796 FILLER_3_195
*1797 FILLER_3_198
*1798 FILLER_3_208
*1799 FILLER_3_224
*1773 FILLER_3_23
*1800 FILLER_3_237
*1801 FILLER_3_241
*1802 FILLER_3_244
*1803 FILLER_3_276
*1804 FILLER_3_289
*1805 FILLER_3_297
*1806 FILLER_3_303
*1774 FILLER_3_31
*1807 FILLER_3_311
*1808 FILLER_3_329
*1809 FILLER_3_337
*1810 FILLER_3_341
*1811 FILLER_3_343
*1812 FILLER_3_349
*1775 FILLER_3_35
*1776 FILLER_3_37
*1813 FILLER_3_381
*1814 FILLER_3_413
*1777 FILLER_3_42
*1778 FILLER_3_47
*1779 FILLER_3_79
*1780 FILLER_3_83
*1781 FILLER_3_90
*1782 FILLER_3_94
*3105 FILLER_40_1
*3113 FILLER_40_114
*3114 FILLER_40_118
*3115 FILLER_40_124
*3107 FILLER_40_13
*3108 FILLER_40_15
*3116 FILLER_40_156
*3117 FILLER_40_177
*3118 FILLER_40_193
*3119 FILLER_40_201
*3120 FILLER_40_219
*3121 FILLER_40_251
*3122 FILLER_40_259
*3123 FILLER_40_263
*3124 FILLER_40_270
*3125 FILLER_40_286
*3126 FILLER_40_291
*3127 FILLER_40_299
*3128 FILLER_40_303
*3129 FILLER_40_311
*3130 FILLER_40_320
*3131 FILLER_40_324
*3109 FILLER_40_33
*3132 FILLER_40_340
*3133 FILLER_40_348
*3134 FILLER_40_354
*3135 FILLER_40_364
*3136 FILLER_40_368
*3137 FILLER_40_371
*3138 FILLER_40_387
*3139 FILLER_40_412
*3140 FILLER_40_420
*3110 FILLER_40_65
*3111 FILLER_40_78
*3112 FILLER_40_82
*3106 FILLER_40_9
*3141 FILLER_41_1
*3150 FILLER_41_104
*3151 FILLER_41_112
*3152 FILLER_41_120
*3153 FILLER_41_136
*3154 FILLER_41_144
*3155 FILLER_41_153
*3156 FILLER_41_159
*3157 FILLER_41_167
*3142 FILLER_41_17
*3158 FILLER_41_174
*3159 FILLER_41_178
*3160 FILLER_41_180
*3161 FILLER_41_183
*3162 FILLER_41_199
*3163 FILLER_41_207
*3164 FILLER_41_215
*3165 FILLER_41_219
*3166 FILLER_41_226
*3143 FILLER_41_25
*3167 FILLER_41_258
*3168 FILLER_41_260
*3169 FILLER_41_278
*3170 FILLER_41_294
*3171 FILLER_41_302
*3172 FILLER_41_306
*3144 FILLER_41_31
*3173 FILLER_41_313
*3174 FILLER_41_345
*3175 FILLER_41_361
*3176 FILLER_41_380
*3177 FILLER_41_401
*3178 FILLER_41_417
*3145 FILLER_41_63
*3146 FILLER_41_76
*3147 FILLER_41_80
*3148 FILLER_41_82
*3149 FILLER_41_88
*3179 FILLER_42_1
*3186 FILLER_42_102
*3187 FILLER_42_110
*3188 FILLER_42_112
*3189 FILLER_42_120
*3190 FILLER_42_122
*3191 FILLER_42_128
*3192 FILLER_42_136
*3193 FILLER_42_140
*3194 FILLER_42_159
*3195 FILLER_42_167
*3180 FILLER_42_17
*3196 FILLER_42_188
*3197 FILLER_42_220
*3198 FILLER_42_232
*3181 FILLER_42_25
*3199 FILLER_42_264
*3200 FILLER_42_274
*3201 FILLER_42_306
*3202 FILLER_42_310
*3203 FILLER_42_312
*3204 FILLER_42_330
*3182 FILLER_42_34
*3205 FILLER_42_346
*3206 FILLER_42_371
*3207 FILLER_42_403
*3208 FILLER_42_419
*3183 FILLER_42_66
*3184 FILLER_42_68
*3185 FILLER_42_86
*3209 FILLER_43_1
*3217 FILLER_43_106
*3218 FILLER_43_114
*3219 FILLER_43_133
*3220 FILLER_43_165
*3210 FILLER_43_17
*3221 FILLER_43_197
*3222 FILLER_43_213
*3223 FILLER_43_221
*3224 FILLER_43_225
*3225 FILLER_43_244
*3226 FILLER_43_260
*3227 FILLER_43_264
*3228 FILLER_43_266
*3229 FILLER_43_272
*3211 FILLER_43_30
*3230 FILLER_43_304
*3231 FILLER_43_336
*3212 FILLER_43_34
*3232 FILLER_43_368
*3233 FILLER_43_400
*3234 FILLER_43_416
*3235 FILLER_43_420
*3213 FILLER_43_43
*3214 FILLER_43_75
*3215 FILLER_43_81
*3216 FILLER_43_90
*3236 FILLER_44_1
*3244 FILLER_44_119
*3245 FILLER_44_127
*3246 FILLER_44_132
*3247 FILLER_44_148
*3248 FILLER_44_152
*3249 FILLER_44_154
*3250 FILLER_44_162
*3237 FILLER_44_17
*3251 FILLER_44_194
*3252 FILLER_44_226
*3253 FILLER_44_230
*3254 FILLER_44_232
*3255 FILLER_44_237
*3238 FILLER_44_25
*3256 FILLER_44_253
*3257 FILLER_44_261
*3258 FILLER_44_268
*3259 FILLER_44_272
*3260 FILLER_44_288
*3239 FILLER_44_29
*3261 FILLER_44_296
*3262 FILLER_44_298
*3263 FILLER_44_306
*3240 FILLER_44_32
*3264 FILLER_44_338
*3265 FILLER_44_354
*3266 FILLER_44_361
*3267 FILLER_44_393
*3268 FILLER_44_395
*3269 FILLER_44_401
*3270 FILLER_44_417
*3241 FILLER_44_64
*3242 FILLER_44_80
*3243 FILLER_44_87
*3271 FILLER_45_1
*3277 FILLER_45_106
*3278 FILLER_45_114
*3279 FILLER_45_118
*3280 FILLER_45_120
*3281 FILLER_45_125
*3282 FILLER_45_129
*3283 FILLER_45_145
*3284 FILLER_45_153
*3285 FILLER_45_162
*3272 FILLER_45_17
*3286 FILLER_45_170
*3287 FILLER_45_177
*3288 FILLER_45_209
*3289 FILLER_45_221
*3290 FILLER_45_253
*3291 FILLER_45_261
*3292 FILLER_45_279
*3293 FILLER_45_295
*3294 FILLER_45_303
*3295 FILLER_45_307
*3296 FILLER_45_326
*3297 FILLER_45_342
*3273 FILLER_45_35
*3298 FILLER_45_350
*3299 FILLER_45_352
*3300 FILLER_45_370
*3301 FILLER_45_386
*3302 FILLER_45_394
*3303 FILLER_45_412
*3304 FILLER_45_420
*3274 FILLER_45_67
*3275 FILLER_45_71
*3276 FILLER_45_90
*3305 FILLER_46_1
*3314 FILLER_46_102
*3315 FILLER_46_109
*3316 FILLER_46_117
*3317 FILLER_46_121
*3318 FILLER_46_123
*3319 FILLER_46_129
*3320 FILLER_46_145
*3321 FILLER_46_153
*3322 FILLER_46_155
*3323 FILLER_46_161
*3324 FILLER_46_165
*3325 FILLER_46_169
*3306 FILLER_46_17
*3326 FILLER_46_177
*3327 FILLER_46_179
*3328 FILLER_46_182
*3307 FILLER_46_19
*3329 FILLER_46_198
*3330 FILLER_46_206
*3331 FILLER_46_210
*3332 FILLER_46_212
*3333 FILLER_46_218
*3334 FILLER_46_224
*3335 FILLER_46_256
*3336 FILLER_46_260
*3337 FILLER_46_262
*3338 FILLER_46_268
*3339 FILLER_46_274
*3340 FILLER_46_286
*3341 FILLER_46_294
*3342 FILLER_46_298
*3343 FILLER_46_300
*3344 FILLER_46_306
*3345 FILLER_46_315
*3346 FILLER_46_319
*3347 FILLER_46_323
*3348 FILLER_46_339
*3349 FILLER_46_347
*3350 FILLER_46_351
*3351 FILLER_46_357
*3352 FILLER_46_361
*3353 FILLER_46_365
*3308 FILLER_46_37
*3354 FILLER_46_381
*3355 FILLER_46_389
*3356 FILLER_46_395
*3357 FILLER_46_399
*3358 FILLER_46_403
*3359 FILLER_46_419
*3309 FILLER_46_69
*3310 FILLER_46_77
*3311 FILLER_46_84
*3312 FILLER_46_90
*3313 FILLER_46_98
*3360 FILLER_47_1
*3371 FILLER_47_105
*3372 FILLER_47_113
*3373 FILLER_47_117
*3374 FILLER_47_136
*3375 FILLER_47_168
*3361 FILLER_47_17
*3376 FILLER_47_187
*3377 FILLER_47_195
*3378 FILLER_47_201
*3379 FILLER_47_203
*3380 FILLER_47_208
*3381 FILLER_47_229
*3382 FILLER_47_245
*3362 FILLER_47_25
*3383 FILLER_47_253
*3384 FILLER_47_257
*3385 FILLER_47_259
*3363 FILLER_47_27
*3386 FILLER_47_277
*3387 FILLER_47_285
*3388 FILLER_47_290
*3389 FILLER_47_306
*3390 FILLER_47_312
*3391 FILLER_47_319
*3364 FILLER_47_33
*3392 FILLER_47_368
*3365 FILLER_47_37
*3393 FILLER_47_384
*3394 FILLER_47_388
*3395 FILLER_47_390
*3396 FILLER_47_408
*3397 FILLER_47_416
*3398 FILLER_47_420
*3366 FILLER_47_43
*3367 FILLER_47_59
*3368 FILLER_47_67
*3369 FILLER_47_71
*3370 FILLER_47_89
*3399 FILLER_48_1
*3409 FILLER_48_121
*3410 FILLER_48_125
*3411 FILLER_48_129
*3412 FILLER_48_145
*3413 FILLER_48_153
*3400 FILLER_48_17
*3414 FILLER_48_172
*3415 FILLER_48_188
*3416 FILLER_48_196
*3417 FILLER_48_200
*3418 FILLER_48_204
*3419 FILLER_48_236
*3401 FILLER_48_25
*3420 FILLER_48_252
*3421 FILLER_48_260
*3422 FILLER_48_264
*3402 FILLER_48_27
*3423 FILLER_48_270
*3403 FILLER_48_30
*3424 FILLER_48_302
*3425 FILLER_48_310
*3426 FILLER_48_328
*3404 FILLER_48_34
*3427 FILLER_48_344
*3428 FILLER_48_352
*3429 FILLER_48_361
*3430 FILLER_48_393
*3431 FILLER_48_400
*3432 FILLER_48_416
*3433 FILLER_48_420
*3405 FILLER_48_66
*3406 FILLER_48_82
*3407 FILLER_48_86
*3408 FILLER_48_89
*3434 FILLER_49_1
*3442 FILLER_49_119
*3443 FILLER_49_121
*3444 FILLER_49_126
*3445 FILLER_49_133
*3446 FILLER_49_138
*3435 FILLER_49_17
*3447 FILLER_49_170
*3448 FILLER_49_202
*3449 FILLER_49_238
*3450 FILLER_49_254
*3451 FILLER_49_262
*3452 FILLER_49_266
*3453 FILLER_49_274
*3454 FILLER_49_306
*3455 FILLER_49_338
*3436 FILLER_49_35
*3456 FILLER_49_370
*3457 FILLER_49_402
*3458 FILLER_49_418
*3459 FILLER_49_420
*3437 FILLER_49_67
*3438 FILLER_49_75
*3439 FILLER_49_79
*3440 FILLER_49_81
*3441 FILLER_49_87
*1815 FILLER_4_1
*1824 FILLER_4_113
*1825 FILLER_4_129
*1826 FILLER_4_137
*1827 FILLER_4_158
*1816 FILLER_4_17
*1828 FILLER_4_174
*1829 FILLER_4_178
*1830 FILLER_4_180
*1831 FILLER_4_198
*1832 FILLER_4_206
*1833 FILLER_4_214
*1834 FILLER_4_216
*1835 FILLER_4_223
*1836 FILLER_4_231
*1837 FILLER_4_240
*1817 FILLER_4_25
*1838 FILLER_4_272
*1839 FILLER_4_280
*1840 FILLER_4_284
*1841 FILLER_4_288
*1818 FILLER_4_29
*1842 FILLER_4_304
*1843 FILLER_4_312
*1844 FILLER_4_316
*1845 FILLER_4_322
*1846 FILLER_4_338
*1847 FILLER_4_342
*1848 FILLER_4_348
*1849 FILLER_4_380
*1850 FILLER_4_412
*1851 FILLER_4_420
*1819 FILLER_4_43
*1820 FILLER_4_50
*1821 FILLER_4_82
*1822 FILLER_4_90
*1823 FILLER_4_94
*3460 FILLER_50_1
*3468 FILLER_50_106
*3469 FILLER_50_122
*3470 FILLER_50_128
*3471 FILLER_50_135
*3472 FILLER_50_140
*3461 FILLER_50_17
*3473 FILLER_50_176
*3462 FILLER_50_19
*3474 FILLER_50_208
*3475 FILLER_50_216
*3476 FILLER_50_224
*3477 FILLER_50_228
*3478 FILLER_50_233
*3479 FILLER_50_265
*3480 FILLER_50_297
*3481 FILLER_50_329
*3482 FILLER_50_345
*3483 FILLER_50_353
*3484 FILLER_50_360
*3463 FILLER_50_37
*3485 FILLER_50_392
*3486 FILLER_50_398
*3487 FILLER_50_414
*3488 FILLER_50_418
*3489 FILLER_50_420
*3464 FILLER_50_69
*3465 FILLER_50_71
*3466 FILLER_50_77
*3467 FILLER_50_93
*3490 FILLER_51_1
*3497 FILLER_51_110
*3498 FILLER_51_126
*3499 FILLER_51_135
*3500 FILLER_51_167
*3501 FILLER_51_169
*3491 FILLER_51_17
*3502 FILLER_51_187
*3503 FILLER_51_219
*3504 FILLER_51_227
*3505 FILLER_51_229
*3506 FILLER_51_234
*3492 FILLER_51_25
*3507 FILLER_51_250
*3508 FILLER_51_258
*3509 FILLER_51_262
*3510 FILLER_51_264
*3511 FILLER_51_268
*3512 FILLER_51_300
*3513 FILLER_51_308
*3514 FILLER_51_312
*3515 FILLER_51_319
*3493 FILLER_51_32
*3516 FILLER_51_323
*3517 FILLER_51_355
*3518 FILLER_51_361
*3519 FILLER_51_377
*3520 FILLER_51_385
*3521 FILLER_51_389
*3522 FILLER_51_391
*3523 FILLER_51_397
*3524 FILLER_51_413
*3494 FILLER_51_64
*3495 FILLER_51_72
*3496 FILLER_51_78
*3525 FILLER_52_1
*3538 FILLER_52_119
*3539 FILLER_52_128
*3540 FILLER_52_135
*3541 FILLER_52_140
*3542 FILLER_52_148
*3543 FILLER_52_154
*3544 FILLER_52_162
*3545 FILLER_52_166
*3546 FILLER_52_168
*3526 FILLER_52_17
*3547 FILLER_52_173
*3548 FILLER_52_205
*3549 FILLER_52_210
*3550 FILLER_52_226
*3551 FILLER_52_244
*3527 FILLER_52_25
*3552 FILLER_52_260
*3553 FILLER_52_264
*3554 FILLER_52_266
*3528 FILLER_52_27
*3555 FILLER_52_272
*3556 FILLER_52_276
*3557 FILLER_52_284
*3558 FILLER_52_292
*3559 FILLER_52_300
*3560 FILLER_52_304
*3561 FILLER_52_306
*3562 FILLER_52_312
*3563 FILLER_52_316
*3564 FILLER_52_321
*3529 FILLER_52_33
*3565 FILLER_52_353
*3566 FILLER_52_359
*3567 FILLER_52_363
*3530 FILLER_52_37
*3568 FILLER_52_379
*3569 FILLER_52_387
*3570 FILLER_52_394
*3571 FILLER_52_410
*3572 FILLER_52_418
*3573 FILLER_52_420
*3531 FILLER_52_44
*3532 FILLER_52_60
*3533 FILLER_52_68
*3534 FILLER_52_75
*3535 FILLER_52_77
*3536 FILLER_52_80
*3537 FILLER_52_87
*3574 FILLER_53_1
*3584 FILLER_53_110
*3585 FILLER_53_118
*3586 FILLER_53_122
*3587 FILLER_53_128
*3588 FILLER_53_132
*3589 FILLER_53_138
*3590 FILLER_53_154
*3591 FILLER_53_162
*3592 FILLER_53_167
*3575 FILLER_53_17
*3593 FILLER_53_186
*3594 FILLER_53_202
*3595 FILLER_53_204
*3596 FILLER_53_209
*3597 FILLER_53_217
*3598 FILLER_53_223
*3599 FILLER_53_231
*3600 FILLER_53_237
*3576 FILLER_53_25
*3601 FILLER_53_253
*3602 FILLER_53_261
*3603 FILLER_53_265
*3577 FILLER_53_27
*3604 FILLER_53_272
*3605 FILLER_53_274
*3606 FILLER_53_277
*3607 FILLER_53_285
*3608 FILLER_53_287
*3609 FILLER_53_292
*3578 FILLER_53_30
*3610 FILLER_53_300
*3611 FILLER_53_304
*3612 FILLER_53_311
*3613 FILLER_53_320
*3614 FILLER_53_324
*3579 FILLER_53_34
*3615 FILLER_53_356
*3616 FILLER_53_362
*3617 FILLER_53_396
*3618 FILLER_53_400
*3619 FILLER_53_416
*3620 FILLER_53_420
*3580 FILLER_53_66
*3581 FILLER_53_68
*3582 FILLER_53_74
*3583 FILLER_53_78
*3621 FILLER_54_1
*3629 FILLER_54_116
*3630 FILLER_54_134
*3631 FILLER_54_136
*3632 FILLER_54_141
*3633 FILLER_54_157
*3634 FILLER_54_169
*3622 FILLER_54_17
*3635 FILLER_54_176
*3623 FILLER_54_19
*3636 FILLER_54_192
*3637 FILLER_54_213
*3638 FILLER_54_232
*3639 FILLER_54_264
*3640 FILLER_54_282
*3641 FILLER_54_298
*3642 FILLER_54_306
*3643 FILLER_54_310
*3644 FILLER_54_312
*3645 FILLER_54_330
*3646 FILLER_54_346
*3647 FILLER_54_350
*3648 FILLER_54_369
*3624 FILLER_54_37
*3649 FILLER_54_385
*3650 FILLER_54_387
*3651 FILLER_54_405
*3625 FILLER_54_53
*3626 FILLER_54_61
*3627 FILLER_54_65
*3628 FILLER_54_84
*3652 FILLER_55_1
*3659 FILLER_55_117
*3660 FILLER_55_119
*3661 FILLER_55_139
*3653 FILLER_55_17
*3662 FILLER_55_171
*3663 FILLER_55_203
*3664 FILLER_55_219
*3665 FILLER_55_221
*3666 FILLER_55_226
*3667 FILLER_55_258
*3668 FILLER_55_262
*3669 FILLER_55_264
*3670 FILLER_55_282
*3671 FILLER_55_298
*3672 FILLER_55_306
*3673 FILLER_55_310
*3674 FILLER_55_329
*3675 FILLER_55_345
*3676 FILLER_55_370
*3654 FILLER_55_38
*3677 FILLER_55_386
*3678 FILLER_55_390
*3679 FILLER_55_409
*3680 FILLER_55_417
*3655 FILLER_55_54
*3656 FILLER_55_62
*3657 FILLER_55_66
*3658 FILLER_55_85
*3681 FILLER_56_1
*3687 FILLER_56_114
*3688 FILLER_56_122
*3689 FILLER_56_124
*3690 FILLER_56_129
*3691 FILLER_56_138
*3682 FILLER_56_17
*3692 FILLER_56_170
*3693 FILLER_56_202
*3694 FILLER_56_234
*3683 FILLER_56_25
*3695 FILLER_56_266
*3696 FILLER_56_298
*3697 FILLER_56_330
*3684 FILLER_56_34
*3698 FILLER_56_362
*3699 FILLER_56_394
*3700 FILLER_56_410
*3701 FILLER_56_418
*3702 FILLER_56_420
*3685 FILLER_56_66
*3686 FILLER_56_98
*1852 FILLER_5_1
*1861 FILLER_5_113
*1862 FILLER_5_129
*1863 FILLER_5_137
*1864 FILLER_5_141
*1865 FILLER_5_148
*1866 FILLER_5_152
*1867 FILLER_5_158
*1853 FILLER_5_17
*1868 FILLER_5_190
*1869 FILLER_5_197
*1870 FILLER_5_229
*1854 FILLER_5_25
*1871 FILLER_5_250
*1872 FILLER_5_282
*1855 FILLER_5_29
*1873 FILLER_5_291
*1874 FILLER_5_295
*1875 FILLER_5_327
*1876 FILLER_5_343
*1877 FILLER_5_345
*1878 FILLER_5_348
*1856 FILLER_5_37
*1879 FILLER_5_380
*1880 FILLER_5_388
*1881 FILLER_5_392
*1882 FILLER_5_398
*1883 FILLER_5_414
*1884 FILLER_5_418
*1885 FILLER_5_420
*1857 FILLER_5_45
*1858 FILLER_5_77
*1859 FILLER_5_93
*1860 FILLER_5_95
*1886 FILLER_6_1
*1898 FILLER_6_100
*1899 FILLER_6_132
*1900 FILLER_6_134
*1901 FILLER_6_140
*1887 FILLER_6_17
*1902 FILLER_6_172
*1903 FILLER_6_204
*1904 FILLER_6_236
*1905 FILLER_6_238
*1888 FILLER_6_24
*1906 FILLER_6_241
*1907 FILLER_6_273
*1889 FILLER_6_28
*1908 FILLER_6_281
*1909 FILLER_6_300
*1910 FILLER_6_332
*1911 FILLER_6_336
*1890 FILLER_6_34
*1912 FILLER_6_354
*1913 FILLER_6_362
*1914 FILLER_6_366
*1915 FILLER_6_372
*1916 FILLER_6_376
*1917 FILLER_6_380
*1918 FILLER_6_384
*1919 FILLER_6_386
*1920 FILLER_6_392
*1921 FILLER_6_396
*1891 FILLER_6_40
*1922 FILLER_6_400
*1923 FILLER_6_416
*1892 FILLER_6_42
*1924 FILLER_6_420
*1893 FILLER_6_46
*1894 FILLER_6_78
*1895 FILLER_6_84
*1896 FILLER_6_92
*1897 FILLER_6_96
*1925 FILLER_7_1
*1936 FILLER_7_106
*1937 FILLER_7_138
*1938 FILLER_7_141
*1939 FILLER_7_148
*1926 FILLER_7_17
*1940 FILLER_7_180
*1941 FILLER_7_198
*1927 FILLER_7_23
*1942 FILLER_7_230
*1943 FILLER_7_234
*1944 FILLER_7_241
*1928 FILLER_7_25
*1945 FILLER_7_273
*1946 FILLER_7_289
*1929 FILLER_7_29
*1947 FILLER_7_291
*1948 FILLER_7_297
*1949 FILLER_7_329
*1930 FILLER_7_33
*1950 FILLER_7_337
*1951 FILLER_7_341
*1952 FILLER_7_347
*1953 FILLER_7_363
*1954 FILLER_7_367
*1955 FILLER_7_385
*1956 FILLER_7_389
*1957 FILLER_7_391
*1931 FILLER_7_40
*1958 FILLER_7_409
*1959 FILLER_7_417
*1932 FILLER_7_72
*1933 FILLER_7_78
*1934 FILLER_7_86
*1935 FILLER_7_88
*1960 FILLER_8_1
*1969 FILLER_8_127
*1970 FILLER_8_129
*1971 FILLER_8_147
*1972 FILLER_8_179
*1973 FILLER_8_183
*1974 FILLER_8_185
*1975 FILLER_8_191
*1976 FILLER_8_195
*1977 FILLER_8_198
*1978 FILLER_8_206
*1979 FILLER_8_212
*1980 FILLER_8_228
*1981 FILLER_8_236
*1982 FILLER_8_243
*1962 FILLER_8_27
*1983 FILLER_8_275
*1984 FILLER_8_291
*1985 FILLER_8_298
*1963 FILLER_8_31
*1964 FILLER_8_33
*1986 FILLER_8_330
*1987 FILLER_8_332
*1988 FILLER_8_338
*1989 FILLER_8_370
*1965 FILLER_8_38
*1990 FILLER_8_402
*1991 FILLER_8_418
*1992 FILLER_8_420
*1966 FILLER_8_70
*1967 FILLER_8_86
*1961 FILLER_8_9
*1968 FILLER_8_95
*1993 FILLER_9_1
*2000 FILLER_9_113
*2001 FILLER_9_129
*2002 FILLER_9_142
*2003 FILLER_9_149
*2004 FILLER_9_165
*1994 FILLER_9_17
*2005 FILLER_9_173
*2006 FILLER_9_194
*1995 FILLER_9_21
*2007 FILLER_9_226
*2008 FILLER_9_234
*2009 FILLER_9_253
*2010 FILLER_9_269
*2011 FILLER_9_277
*2012 FILLER_9_298
*2013 FILLER_9_314
*2014 FILLER_9_322
*2015 FILLER_9_326
*2016 FILLER_9_328
*2017 FILLER_9_346
*2018 FILLER_9_378
*1996 FILLER_9_40
*2019 FILLER_9_410
*2020 FILLER_9_418
*1997 FILLER_9_42
*2021 FILLER_9_420
*1998 FILLER_9_49
*1999 FILLER_9_81
*1579 PHY_EDGE_ROW_0_Left_57
*1522 PHY_EDGE_ROW_0_Right_0
*1589 PHY_EDGE_ROW_10_Left_67
*1532 PHY_EDGE_ROW_10_Right_10
*1590 PHY_EDGE_ROW_11_Left_68
*1533 PHY_EDGE_ROW_11_Right_11
*1591 PHY_EDGE_ROW_12_Left_69
*1534 PHY_EDGE_ROW_12_Right_12
*1592 PHY_EDGE_ROW_13_Left_70
*1535 PHY_EDGE_ROW_13_Right_13
*1593 PHY_EDGE_ROW_14_Left_71
*1536 PHY_EDGE_ROW_14_Right_14
*1594 PHY_EDGE_ROW_15_Left_72
*1537 PHY_EDGE_ROW_15_Right_15
*1595 PHY_EDGE_ROW_16_Left_73
*1538 PHY_EDGE_ROW_16_Right_16
*1596 PHY_EDGE_ROW_17_Left_74
*1539 PHY_EDGE_ROW_17_Right_17
*1597 PHY_EDGE_ROW_18_Left_75
*1540 PHY_EDGE_ROW_18_Right_18
*1598 PHY_EDGE_ROW_19_Left_76
*1541 PHY_EDGE_ROW_19_Right_19
*1580 PHY_EDGE_ROW_1_Left_58
*1523 PHY_EDGE_ROW_1_Right_1
*1599 PHY_EDGE_ROW_20_Left_77
*1542 PHY_EDGE_ROW_20_Right_20
*1600 PHY_EDGE_ROW_21_Left_78
*1543 PHY_EDGE_ROW_21_Right_21
*1601 PHY_EDGE_ROW_22_Left_79
*1544 PHY_EDGE_ROW_22_Right_22
*1602 PHY_EDGE_ROW_23_Left_80
*1545 PHY_EDGE_ROW_23_Right_23
*1603 PHY_EDGE_ROW_24_Left_81
*1546 PHY_EDGE_ROW_24_Right_24
*1604 PHY_EDGE_ROW_25_Left_82
*1547 PHY_EDGE_ROW_25_Right_25
*1605 PHY_EDGE_ROW_26_Left_83
*1548 PHY_EDGE_ROW_26_Right_26
*1606 PHY_EDGE_ROW_27_Left_84
*1549 PHY_EDGE_ROW_27_Right_27
*1607 PHY_EDGE_ROW_28_Left_85
*1550 PHY_EDGE_ROW_28_Right_28
*1608 PHY_EDGE_ROW_29_Left_86
*1551 PHY_EDGE_ROW_29_Right_29
*1581 PHY_EDGE_ROW_2_Left_59
*1524 PHY_EDGE_ROW_2_Right_2
*1609 PHY_EDGE_ROW_30_Left_87
*1552 PHY_EDGE_ROW_30_Right_30
*1610 PHY_EDGE_ROW_31_Left_88
*1553 PHY_EDGE_ROW_31_Right_31
*1611 PHY_EDGE_ROW_32_Left_89
*1554 PHY_EDGE_ROW_32_Right_32
*1612 PHY_EDGE_ROW_33_Left_90
*1555 PHY_EDGE_ROW_33_Right_33
*1613 PHY_EDGE_ROW_34_Left_91
*1556 PHY_EDGE_ROW_34_Right_34
*1614 PHY_EDGE_ROW_35_Left_92
*1557 PHY_EDGE_ROW_35_Right_35
*1615 PHY_EDGE_ROW_36_Left_93
*1558 PHY_EDGE_ROW_36_Right_36
*1616 PHY_EDGE_ROW_37_Left_94
*1559 PHY_EDGE_ROW_37_Right_37
*1617 PHY_EDGE_ROW_38_Left_95
*1560 PHY_EDGE_ROW_38_Right_38
*1618 PHY_EDGE_ROW_39_Left_96
*1561 PHY_EDGE_ROW_39_Right_39
*1582 PHY_EDGE_ROW_3_Left_60
*1525 PHY_EDGE_ROW_3_Right_3
*1619 PHY_EDGE_ROW_40_Left_97
*1562 PHY_EDGE_ROW_40_Right_40
*1620 PHY_EDGE_ROW_41_Left_98
*1563 PHY_EDGE_ROW_41_Right_41
*1621 PHY_EDGE_ROW_42_Left_99
*1564 PHY_EDGE_ROW_42_Right_42
*1622 PHY_EDGE_ROW_43_Left_100
*1565 PHY_EDGE_ROW_43_Right_43
*1623 PHY_EDGE_ROW_44_Left_101
*1566 PHY_EDGE_ROW_44_Right_44
*1624 PHY_EDGE_ROW_45_Left_102
*1567 PHY_EDGE_ROW_45_Right_45
*1625 PHY_EDGE_ROW_46_Left_103
*1568 PHY_EDGE_ROW_46_Right_46
*1626 PHY_EDGE_ROW_47_Left_104
*1569 PHY_EDGE_ROW_47_Right_47
*1627 PHY_EDGE_ROW_48_Left_105
*1570 PHY_EDGE_ROW_48_Right_48
*1628 PHY_EDGE_ROW_49_Left_106
*1571 PHY_EDGE_ROW_49_Right_49
*1583 PHY_EDGE_ROW_4_Left_61
*1526 PHY_EDGE_ROW_4_Right_4
*1629 PHY_EDGE_ROW_50_Left_107
*1572 PHY_EDGE_ROW_50_Right_50
*1630 PHY_EDGE_ROW_51_Left_108
*1573 PHY_EDGE_ROW_51_Right_51
*1631 PHY_EDGE_ROW_52_Left_109
*1574 PHY_EDGE_ROW_52_Right_52
*1632 PHY_EDGE_ROW_53_Left_110
*1575 PHY_EDGE_ROW_53_Right_53
*1633 PHY_EDGE_ROW_54_Left_111
*1576 PHY_EDGE_ROW_54_Right_54
*1634 PHY_EDGE_ROW_55_Left_112
*1577 PHY_EDGE_ROW_55_Right_55
*1635 PHY_EDGE_ROW_56_Left_113
*1578 PHY_EDGE_ROW_56_Right_56
*1584 PHY_EDGE_ROW_5_Left_62
*1527 PHY_EDGE_ROW_5_Right_5
*1585 PHY_EDGE_ROW_6_Left_63
*1528 PHY_EDGE_ROW_6_Right_6
*1586 PHY_EDGE_ROW_7_Left_64
*1529 PHY_EDGE_ROW_7_Right_7
*1587 PHY_EDGE_ROW_8_Left_65
*1530 PHY_EDGE_ROW_8_Right_8
*1588 PHY_EDGE_ROW_9_Left_66
*1531 PHY_EDGE_ROW_9_Right_9
*1641 clkbuf_0_clk
*1642 clkbuf_4_0_0_clk
*1652 clkbuf_4_10_0_clk
*1653 clkbuf_4_11_0_clk
*1654 clkbuf_4_12_0_clk
*1655 clkbuf_4_13_0_clk
*1656 clkbuf_4_14_0_clk
*1657 clkbuf_4_15_0_clk
*1643 clkbuf_4_1_0_clk
*1644 clkbuf_4_2_0_clk
*1645 clkbuf_4_3_0_clk
*1646 clkbuf_4_4_0_clk
*1647 clkbuf_4_5_0_clk
*1648 clkbuf_4_6_0_clk
*1649 clkbuf_4_7_0_clk
*1650 clkbuf_4_8_0_clk
*1651 clkbuf_4_9_0_clk
*1658 clkload0
*1659 clkload1
*1668 clkload10
*1669 clkload11
*1670 clkload12
*1671 clkload13
*1660 clkload2
*1661 clkload3
*1662 clkload4
*1663 clkload5
*1664 clkload6
*1665 clkload7
*1666 clkload8
*1667 clkload9
*863 controller/_41_
*864 controller/_42_
*865 controller/_43_
*866 controller/_44_
*867 controller/_45_
*868 controller/_46_
*869 controller/_47_
*870 controller/_48_
*871 controller/_49_
*872 controller/_50_
*873 controller/_51_
*874 controller/_52_
*875 controller/_53_
*876 controller/_54_
*877 controller/_55_
*878 controller/_56_
*879 controller/_57_
*880 controller/_58_
*881 controller/_59_
*882 controller/_60_
*883 controller/_61_
*884 controller/_62_
*885 controller/_63_
*886 controller/_64_
*887 controller/_65_
*888 controller/_66_
*889 controller/_67_
*890 controller/_68_
*891 controller/_69_
*892 controller/_70_
*893 controller/_71_
*894 controller/_72_
*895 controller/_73_
*896 controller/_74_
*897 controller/_75_
*898 controller/_76_
*899 controller/_77_
*900 controller/_78_
*901 controller/_79_
*902 controller/_80_
*903 controller/_81_
*904 controller/_82_
*905 controller/_83_
*906 controller/_84_
*907 controller/_85_
*1676 controller/rebuffer10
*1677 controller/rebuffer11
*1681 controller/rebuffer19
*1672 controller/rebuffer6
*1673 controller/rebuffer7
*1674 controller/rebuffer8
*1675 controller/rebuffer9
*908 memory/_0584_
*909 memory/_0585_
*910 memory/_0586_
*911 memory/_0587_
*912 memory/_0588_
*913 memory/_0589_
*914 memory/_0590_
*915 memory/_0591_
*916 memory/_0592_
*917 memory/_0593_
*918 memory/_0594_
*919 memory/_0595_
*920 memory/_0596_
*921 memory/_0597_
*922 memory/_0598_
*923 memory/_0599_
*924 memory/_0600_
*925 memory/_0601_
*926 memory/_0602_
*927 memory/_0603_
*928 memory/_0604_
*929 memory/_0605_
*930 memory/_0606_
*931 memory/_0607_
*932 memory/_0608_
*933 memory/_0609_
*934 memory/_0610_
*935 memory/_0611_
*936 memory/_0612_
*937 memory/_0613_
*938 memory/_0614_
*939 memory/_0615_
*940 memory/_0616_
*941 memory/_0617_
*942 memory/_0618_
*943 memory/_0619_
*944 memory/_0620_
*945 memory/_0621_
*946 memory/_0622_
*947 memory/_0623_
*948 memory/_0624_
*949 memory/_0625_
*950 memory/_0626_
*951 memory/_0627_
*952 memory/_0628_
*953 memory/_0629_
*954 memory/_0630_
*955 memory/_0631_
*956 memory/_0632_
*957 memory/_0633_
*958 memory/_0634_
*959 memory/_0635_
*960 memory/_0636_
*961 memory/_0637_
*962 memory/_0638_
*963 memory/_0639_
*964 memory/_0640_
*965 memory/_0641_
*966 memory/_0642_
*967 memory/_0643_
*968 memory/_0644_
*969 memory/_0645_
*970 memory/_0646_
*971 memory/_0647_
*972 memory/_0648_
*973 memory/_0649_
*974 memory/_0650_
*975 memory/_0651_
*976 memory/_0652_
*977 memory/_0653_
*978 memory/_0654_
*979 memory/_0655_
*980 memory/_0656_
*981 memory/_0657_
*982 memory/_0658_
*983 memory/_0659_
*984 memory/_0660_
*985 memory/_0661_
*986 memory/_0662_
*987 memory/_0663_
*988 memory/_0664_
*989 memory/_0665_
*990 memory/_0666_
*991 memory/_0667_
*992 memory/_0668_
*993 memory/_0669_
*994 memory/_0670_
*995 memory/_0671_
*996 memory/_0672_
*997 memory/_0673_
*998 memory/_0674_
*999 memory/_0675_
*1000 memory/_0676_
*1001 memory/_0677_
*1002 memory/_0678_
*1003 memory/_0679_
*1004 memory/_0680_
*1005 memory/_0681_
*1006 memory/_0682_
*1007 memory/_0683_
*1008 memory/_0684_
*1009 memory/_0685_
*1010 memory/_0686_
*1011 memory/_0687_
*1012 memory/_0688_
*1013 memory/_0689_
*1014 memory/_0690_
*1015 memory/_0691_
*1016 memory/_0692_
*1017 memory/_0693_
*1018 memory/_0694_
*1019 memory/_0695_
*1020 memory/_0696_
*1021 memory/_0697_
*1022 memory/_0698_
*1023 memory/_0699_
*1024 memory/_0700_
*1025 memory/_0701_
*1026 memory/_0702_
*1027 memory/_0703_
*1028 memory/_0704_
*1029 memory/_0705_
*1030 memory/_0706_
*1031 memory/_0707_
*1032 memory/_0708_
*1033 memory/_0709_
*1034 memory/_0710_
*1035 memory/_0711_
*1036 memory/_0712_
*1037 memory/_0713_
*1038 memory/_0714_
*1039 memory/_0715_
*1040 memory/_0716_
*1041 memory/_0717_
*1042 memory/_0718_
*1043 memory/_0719_
*1044 memory/_0720_
*1045 memory/_0721_
*1046 memory/_0722_
*1047 memory/_0723_
*1048 memory/_0724_
*1049 memory/_0725_
*1050 memory/_0726_
*1051 memory/_0727_
*1052 memory/_0728_
*1053 memory/_0729_
*1054 memory/_0730_
*1055 memory/_0731_
*1056 memory/_0732_
*1057 memory/_0733_
*1058 memory/_0734_
*1059 memory/_0735_
*1060 memory/_0736_
*1061 memory/_0737_
*1062 memory/_0738_
*1063 memory/_0739_
*1064 memory/_0740_
*1065 memory/_0741_
*1066 memory/_0742_
*1067 memory/_0743_
*1068 memory/_0744_
*1069 memory/_0745_
*1070 memory/_0746_
*1071 memory/_0747_
*1072 memory/_0748_
*1073 memory/_0749_
*1074 memory/_0750_
*1075 memory/_0751_
*1076 memory/_0752_
*1077 memory/_0753_
*1078 memory/_0754_
*1079 memory/_0755_
*1080 memory/_0756_
*1081 memory/_0757_
*1082 memory/_0758_
*1083 memory/_0759_
*1084 memory/_0760_
*1085 memory/_0761_
*1086 memory/_0762_
*1087 memory/_0763_
*1088 memory/_0764_
*1089 memory/_0765_
*1090 memory/_0766_
*1091 memory/_0767_
*1092 memory/_0768_
*1093 memory/_0769_
*1094 memory/_0770_
*1095 memory/_0771_
*1096 memory/_0772_
*1097 memory/_0773_
*1098 memory/_0774_
*1099 memory/_0775_
*1100 memory/_0776_
*1101 memory/_0777_
*1102 memory/_0778_
*1103 memory/_0779_
*1104 memory/_0780_
*1105 memory/_0781_
*1106 memory/_0782_
*1107 memory/_0783_
*1108 memory/_0784_
*1109 memory/_0785_
*1110 memory/_0786_
*1111 memory/_0787_
*1112 memory/_0788_
*1113 memory/_0789_
*1114 memory/_0790_
*1115 memory/_0791_
*1116 memory/_0792_
*1117 memory/_0793_
*1118 memory/_0794_
*1119 memory/_0795_
*1120 memory/_0796_
*1121 memory/_0797_
*1122 memory/_0798_
*1123 memory/_0799_
*1124 memory/_0800_
*1125 memory/_0801_
*1126 memory/_0802_
*1127 memory/_0803_
*1128 memory/_0804_
*1129 memory/_0805_
*1130 memory/_0806_
*1131 memory/_0807_
*1132 memory/_0808_
*1133 memory/_0809_
*1134 memory/_0810_
*1135 memory/_0811_
*1136 memory/_0812_
*1137 memory/_0813_
*1138 memory/_0814_
*1139 memory/_0815_
*1140 memory/_0816_
*1141 memory/_0817_
*1142 memory/_0818_
*1143 memory/_0819_
*1144 memory/_0820_
*1145 memory/_0821_
*1146 memory/_0822_
*1147 memory/_0823_
*1148 memory/_0824_
*1149 memory/_0825_
*1150 memory/_0826_
*1151 memory/_0827_
*1152 memory/_0828_
*1153 memory/_0829_
*1154 memory/_0830_
*1155 memory/_0831_
*1156 memory/_0832_
*1157 memory/_0833_
*1158 memory/_0834_
*1159 memory/_0835_
*1160 memory/_0836_
*1161 memory/_0837_
*1162 memory/_0838_
*1163 memory/_0839_
*1164 memory/_0840_
*1165 memory/_0841_
*1166 memory/_0842_
*1167 memory/_0843_
*1168 memory/_0844_
*1169 memory/_0845_
*1170 memory/_0846_
*1171 memory/_0847_
*1172 memory/_0848_
*1173 memory/_0849_
*1174 memory/_0850_
*1175 memory/_0851_
*1176 memory/_0852_
*1177 memory/_0853_
*1178 memory/_0854_
*1179 memory/_0855_
*1180 memory/_0856_
*1181 memory/_0857_
*1182 memory/_0858_
*1183 memory/_0859_
*1184 memory/_0860_
*1185 memory/_0861_
*1186 memory/_0862_
*1187 memory/_0863_
*1188 memory/_0864_
*1189 memory/_0865_
*1190 memory/_0866_
*1191 memory/_0867_
*1192 memory/_0868_
*1193 memory/_0869_
*1194 memory/_0870_
*1195 memory/_0871_
*1196 memory/_0872_
*1197 memory/_0873_
*1198 memory/_0874_
*1199 memory/_0875_
*1200 memory/_0876_
*1201 memory/_0877_
*1202 memory/_0878_
*1203 memory/_0879_
*1204 memory/_0880_
*1205 memory/_0881_
*1206 memory/_0882_
*1207 memory/_0883_
*1208 memory/_0884_
*1209 memory/_0885_
*1210 memory/_0886_
*1211 memory/_0887_
*1212 memory/_0888_
*1213 memory/_0889_
*1214 memory/_0890_
*1215 memory/_0891_
*1216 memory/_0892_
*1217 memory/_0893_
*1218 memory/_0894_
*1219 memory/_0895_
*1220 memory/_0896_
*1221 memory/_0897_
*1222 memory/_0898_
*1223 memory/_0899_
*1224 memory/_0900_
*1225 memory/_0901_
*1226 memory/_0902_
*1227 memory/_0903_
*1228 memory/_0904_
*1229 memory/_0905_
*1230 memory/_0906_
*1231 memory/_0907_
*1232 memory/_0908_
*1233 memory/_0909_
*1234 memory/_0910_
*1235 memory/_0911_
*1236 memory/_0912_
*1237 memory/_0913_
*1238 memory/_0914_
*1239 memory/_0915_
*1240 memory/_0916_
*1241 memory/_0917_
*1242 memory/_0918_
*1243 memory/_0919_
*1244 memory/_0920_
*1245 memory/_0921_
*1246 memory/_0922_
*1247 memory/_0923_
*1248 memory/_0924_
*1249 memory/_0925_
*1250 memory/_0926_
*1251 memory/_0927_
*1252 memory/_0928_
*1253 memory/_0929_
*1254 memory/_0930_
*1255 memory/_0931_
*1256 memory/_0932_
*1257 memory/_0933_
*1258 memory/_0934_
*1259 memory/_0935_
*1260 memory/_0936_
*1261 memory/_0937_
*1262 memory/_0938_
*1263 memory/_0939_
*1264 memory/_0940_
*1265 memory/_0941_
*1266 memory/_0942_
*1267 memory/_0943_
*1268 memory/_0944_
*1269 memory/_0945_
*1270 memory/_0946_
*1271 memory/_0947_
*1272 memory/_0948_
*1273 memory/_0949_
*1274 memory/_0950_
*1275 memory/_0951_
*1276 memory/_0952_
*1277 memory/_0953_
*1278 memory/_0954_
*1279 memory/_0955_
*1280 memory/_0956_
*1281 memory/_0957_
*1282 memory/_0958_
*1283 memory/_0959_
*1284 memory/_0960_
*1285 memory/_0961_
*1286 memory/_0962_
*1287 memory/_0963_
*1288 memory/_0964_
*1289 memory/_0965_
*1290 memory/_0966_
*1291 memory/_0967_
*1292 memory/_0968_
*1293 memory/_0969_
*1294 memory/_0970_
*1295 memory/_0971_
*1296 memory/_0972_
*1297 memory/_0973_
*1298 memory/_0974_
*1299 memory/_0975_
*1300 memory/_0976_
*1301 memory/_0977_
*1302 memory/_0978_
*1303 memory/_0979_
*1304 memory/_0980_
*1305 memory/_0981_
*1306 memory/_0982_
*1307 memory/_0983_
*1308 memory/_0984_
*1309 memory/_0985_
*1310 memory/_0986_
*1311 memory/_0987_
*1312 memory/_0988_
*1313 memory/_0989_
*1314 memory/_0990_
*1315 memory/_0991_
*1316 memory/_0992_
*1317 memory/_0993_
*1318 memory/_0994_
*1319 memory/_0995_
*1320 memory/_0996_
*1321 memory/_0997_
*1322 memory/_0998_
*1323 memory/_0999_
*1324 memory/_1000_
*1325 memory/_1001_
*1326 memory/_1002_
*1327 memory/_1003_
*1328 memory/_1004_
*1329 memory/_1005_
*1330 memory/_1006_
*1331 memory/_1007_
*1332 memory/_1008_
*1333 memory/_1009_
*1334 memory/_1010_
*1335 memory/_1011_
*1336 memory/_1012_
*1337 memory/_1013_
*1338 memory/_1014_
*1339 memory/_1015_
*1340 memory/_1016_
*1341 memory/_1017_
*1342 memory/_1018_
*1343 memory/_1019_
*1344 memory/_1020_
*1345 memory/_1021_
*1346 memory/_1022_
*1347 memory/_1023_
*1348 memory/_1024_
*1349 memory/_1025_
*1350 memory/_1026_
*1351 memory/_1027_
*1352 memory/_1028_
*1353 memory/_1029_
*1354 memory/_1030_
*1355 memory/_1031_
*1356 memory/_1032_
*1357 memory/_1033_
*1358 memory/_1034_
*1359 memory/_1035_
*1360 memory/_1036_
*1361 memory/_1037_
*1362 memory/_1038_
*1363 memory/_1039_
*1364 memory/_1040_
*1365 memory/_1041_
*1366 memory/_1042_
*1367 memory/_1043_
*1368 memory/_1044_
*1369 memory/_1045_
*1370 memory/_1046_
*1371 memory/_1047_
*1372 memory/_1048_
*1373 memory/_1049_
*1374 memory/_1050_
*1375 memory/_1051_
*1376 memory/_1052_
*1377 memory/_1053_
*1378 memory/_1054_
*1379 memory/_1055_
*1380 memory/_1056_
*1381 memory/_1057_
*1382 memory/_1058_
*1383 memory/_1059_
*1384 memory/_1060_
*1385 memory/_1061_
*1386 memory/_1062_
*1387 memory/_1063_
*1388 memory/_1064_
*1389 memory/_1065_
*1390 memory/_1066_
*1391 memory/_1067_
*1392 memory/_1068_
*1393 memory/_1069_
*1394 memory/_1070_
*1395 memory/_1071_
*1396 memory/_1072_
*1397 memory/_1073_
*1398 memory/_1074_
*1399 memory/_1075_
*1400 memory/_1076_
*1401 memory/_1077_
*1402 memory/_1078_
*1403 memory/_1079_
*1404 memory/_1080_
*1405 memory/_1081_
*1406 memory/_1082_
*1407 memory/_1083_
*1408 memory/_1084_
*1409 memory/_1085_
*1410 memory/_1086_
*1411 memory/_1087_
*1412 memory/_1088_
*1413 memory/_1089_
*1414 memory/_1090_
*1415 memory/_1091_
*1416 memory/_1092_
*1417 memory/_1093_
*1418 memory/_1094_
*1419 memory/_1095_
*1420 memory/_1096_
*1421 memory/_1097_
*1422 memory/_1098_
*1423 memory/_1099_
*1424 memory/_1100_
*1425 memory/_1101_
*1426 memory/_1102_
*1427 memory/_1103_
*1428 memory/_1104_
*1429 memory/_1105_
*1430 memory/_1106_
*1431 memory/_1107_
*1432 memory/_1108_
*1433 memory/_1109_
*1434 memory/_1110_
*1435 memory/_1111_
*1436 memory/_1112_
*1437 memory/_1113_
*1438 memory/_1114_
*1439 memory/_1115_
*1440 memory/_1116_
*1441 memory/_1117_
*1442 memory/_1118_
*1443 memory/_1119_
*1444 memory/_1120_
*1445 memory/_1121_
*1446 memory/_1122_
*1447 memory/_1123_
*1448 memory/_1124_
*1449 memory/_1125_
*1450 memory/_1126_
*1451 memory/_1127_
*1452 memory/_1128_
*1453 memory/_1129_
*1454 memory/_1130_
*1455 memory/_1131_
*1456 memory/_1132_
*1457 memory/_1133_
*1458 memory/_1134_
*1459 memory/_1135_
*1460 memory/_1136_
*1461 memory/_1137_
*1462 memory/_1138_
*1463 memory/_1139_
*1464 memory/_1140_
*1465 memory/_1141_
*1466 memory/_1142_
*1467 memory/_1143_
*1468 memory/_1144_
*1469 memory/_1145_
*1470 memory/_1146_
*1471 memory/_1147_
*1472 memory/_1148_
*1473 memory/_1149_
*1474 memory/_1150_
*1475 memory/_1151_
*1476 memory/_1152_
*1477 memory/_1153_
*1478 memory/_1154_
*1479 memory/_1155_
*1480 memory/_1156_
*1481 memory/_1157_
*1482 memory/_1158_
*1483 memory/_1159_
*1484 memory/_1160_
*1485 memory/_1161_
*1486 memory/_1162_
*1487 memory/_1163_
*1488 memory/_1164_
*1489 memory/_1165_
*1490 memory/_1166_
*1491 memory/_1167_
*1636 memory/max_cap1
*1638 memory/max_cap3
*1639 memory/max_cap4
*1640 memory/max_cap5
*1680 memory/rebuffer18
*1683 memory/rebuffer21
*1684 memory/rebuffer22
*1685 memory/rebuffer23
*1686 memory/rebuffer24
*1687 memory/rebuffer25
*1689 memory/rebuffer27
*1492 rd_pointer/_15_
*1493 rd_pointer/_16_
*1494 rd_pointer/_17_
*1495 rd_pointer/_18_
*1496 rd_pointer/_19_
*1497 rd_pointer/_20_
*1498 rd_pointer/_21_
*1499 rd_pointer/_22_
*1500 rd_pointer/_23_
*1501 rd_pointer/_24_
*1502 rd_pointer/_25_
*1503 rd_pointer/_26_
*1504 rd_pointer/_27_
*1505 rd_pointer/_28_
*1506 rd_pointer/_29_
*1682 rebuffer20
*1688 rebuffer26
*1678 split
*1507 wr_pointer/_15_
*1508 wr_pointer/_16_
*1509 wr_pointer/_17_
*1510 wr_pointer/_18_
*1511 wr_pointer/_19_
*1512 wr_pointer/_20_
*1513 wr_pointer/_21_
*1514 wr_pointer/_22_
*1515 wr_pointer/_23_
*1516 wr_pointer/_24_
*1517 wr_pointer/_25_
*1518 wr_pointer/_26_
*1519 wr_pointer/_27_
*1520 wr_pointer/_28_
*1521 wr_pointer/_29_
*1637 wr_pointer/rebuffer16
*1679 wr_pointer/rebuffer17

*PORTS
clk I
data_in[0] I
data_in[1] I
data_in[2] I
data_in[3] I
data_in[4] I
data_in[5] I
data_in[6] I
data_in[7] I
data_out[0] O
data_out[1] O
data_out[2] O
data_out[3] O
data_out[4] O
data_out[5] O
data_out[6] O
data_out[7] O
empty O
full O
rd_en I
rst I
wr_en I

*D_NET *1 0.00718431
*CONN
*P clk I
*I *1641:A I *D BUF_X4
*CAP
1 clk 0.00072688
2 *1641:A 0
3 *1:36 4.10843e-06
4 *1:32 0.00285653
5 *1:14 0.0035793
6 *1:32 *440:26 1.56471e-05
7 *1:32 *828:23 1.84899e-06
*RES
1 clk *1:14 47.8179 
2 *1:14 *1:32 47.925 
3 *1:32 *1:36 5.39286 
4 *1:36 *1641:A 10 
*END

*D_NET *828 0.0140833
*CONN
*I *1655:A I *D BUF_X4
*I *1657:A I *D BUF_X4
*I *1656:A I *D BUF_X4
*I *1654:A I *D BUF_X4
*I *1648:A I *D BUF_X4
*I *1649:A I *D BUF_X4
*I *1647:A I *D BUF_X4
*I *1646:A I *D BUF_X4
*I *1645:A I *D BUF_X4
*I *1643:A I *D BUF_X4
*I *1642:A I *D BUF_X4
*I *1644:A I *D BUF_X4
*I *1653:A I *D BUF_X4
*I *1652:A I *D BUF_X4
*I *1650:A I *D BUF_X4
*I *1651:A I *D BUF_X4
*I *1641:Z O *D BUF_X4
*CAP
1 *1655:A 1.50803e-05
2 *1657:A 2.23192e-05
3 *1656:A 0
4 *1654:A 0
5 *1648:A 1.27664e-05
6 *1649:A 0
7 *1647:A 0
8 *1646:A 2.86333e-05
9 *1645:A 2.79784e-05
10 *1643:A 2.02746e-05
11 *1642:A 0
12 *1644:A 0
13 *1653:A 1.84554e-05
14 *1652:A 0
15 *1650:A 1.4212e-05
16 *1651:A 0
17 *1641:Z 0
18 *828:392 0.000228262
19 *828:383 0.000205943
20 *828:381 3.29277e-05
21 *828:377 0.000265838
22 *828:353 0.000557478
23 *828:335 0.000872837
24 *828:323 5.7517e-05
25 *828:319 0.000391984
26 *828:297 1.97414e-05
27 *828:279 0
28 *828:262 0.000265665
29 *828:249 0.000237032
30 *828:247 1.3876e-05
31 *828:243 0.00035774
32 *828:233 0.000761281
33 *828:223 0.000760605
34 *828:221 0.0011891
35 *828:203 5.96021e-05
36 *828:191 0.000213049
37 *828:189 0.000247935
38 *828:169 0.000194718
39 *828:141 0.000147073
40 *828:133 0.000589311
41 *828:131 0.000859117
42 *828:113 0.000238092
43 *828:104 0.000239771
44 *828:95 5.54716e-05
45 *828:89 0.000178129
46 *828:75 4.94942e-05
47 *828:69 0.000405531
48 *828:60 0.000266157
49 *828:49 5.70289e-05
50 *828:39 0.000502849
51 *828:25 0.00153861
52 *828:23 0.00107053
53 *828:6 1.87055e-05
54 *1646:A *1394:CK 0
55 *1650:A *837:10 4.51722e-06
56 *1653:A *840:16 2.08416e-06
57 *828:75 *837:10 1.07183e-06
58 *828:89 *1456:CK 0
59 *828:89 *1666:A 1.58933e-05
60 *828:89 *837:10 1.65965e-05
61 *828:95 *1456:CK 0
62 *828:104 *1456:CK 3.51536e-06
63 *828:113 *839:12 1.65484e-05
64 *828:113 *840:16 1.58752e-05
65 *828:223 *851:101 3.51384e-05
66 *828:233 *851:101 0.000124197
67 *828:243 *1663:A 3.96218e-05
68 *828:247 *1663:A 7.70413e-06
69 *828:262 *1394:CK 0
70 *828:262 *1405:CK 3.16848e-05
71 *828:262 *834:10 3.0033e-06
72 *828:377 *842:8 0
73 *828:381 *842:8 0
74 *925:A *828:243 0
75 *1078:A *828:69 5.53254e-06
76 *1078:C2 *828:89 2.91459e-06
77 *1082:A1 *828:169 5.28334e-06
78 *1112:A1 *828:141 2.41259e-06
79 *1153:A *828:392 8.88497e-06
80 *1153:B *828:381 0
81 *1153:C1 *828:392 0
82 *1226:B1 *1650:A 7.95177e-06
83 *1226:B1 *828:75 4.80186e-06
84 *1226:B1 *828:89 0
85 *1226:B1 *828:95 0
86 *1226:B1 *828:104 0
87 *1229:B1 *1653:A 8.43215e-07
88 *1229:B1 *828:113 1.94213e-05
89 *1233:A1 *828:113 1.62382e-06
90 *1236:B2 *828:89 2.87703e-06
91 *1322:B1 *1646:A 0
92 *1322:B1 *828:262 0
93 *1322:B2 *828:262 0
94 *1334:A *828:392 0
95 *1456:D *828:89 1.88906e-05
96 *1:32 *828:23 1.84899e-06
97 *367:14 *828:262 0
98 *383:10 *828:69 5.39412e-06
99 *384:14 *828:69 1.43544e-05
100 *384:14 *828:75 2.64615e-05
101 *411:30 *828:189 3.31912e-06
102 *439:12 *828:243 0
103 *473:178 *828:141 1.44988e-05
104 *473:195 *828:141 1.26053e-05
105 *476:222 *828:319 0
106 *476:222 *828:335 0
107 *476:222 *828:377 0
108 *476:273 *828:243 8.34724e-05
109 *489:54 *828:113 4.11886e-05
110 *489:60 *1653:A 0
111 *489:70 *828:49 2.04029e-06
112 *489:70 *828:60 5.10662e-06
113 *489:70 *828:69 0
114 *491:26 *828:89 0
115 *509:110 *1648:A 1.27666e-06
116 *522:8 *828:377 4.91718e-05
117 *764:12 *828:60 0
118 *764:12 *828:69 0
119 *823:148 *828:69 7.91183e-05
120 *823:154 *828:69 1.07633e-05
121 *823:154 *828:75 2.51177e-05
*RES
1 *1641:Z *828:6 10 
2 *828:6 *828:23 15.0829 
3 *828:23 *828:25 1.86 
4 *828:25 *828:39 30.3493 
5 *828:39 *828:49 7.17857 
6 *828:49 *1651:A 5 
7 *828:49 *828:60 4.64286 
8 *828:60 *828:69 32.6786 
9 *828:69 *828:75 10.1071 
10 *828:75 *1650:A 7.03572 
11 *828:69 *828:89 20.75 
12 *828:89 *828:95 3.85714 
13 *828:95 *1652:A 5 
14 *828:95 *828:104 7.25 
15 *828:104 *828:113 26.5 
16 *828:113 *1653:A 11.75 
17 *828:25 *828:131 33.15 
18 *828:131 *828:133 9.45 
19 *828:133 *828:141 13.3829 
20 *828:141 *1644:A 10 
21 *828:133 *828:169 23.4843 
22 *828:169 *1642:A 10 
23 *828:131 *828:189 13.7414 
24 *828:189 *828:191 18.4643 
25 *828:191 *1643:A 7.53572 
26 *828:189 *828:203 3.25 
27 *828:203 *1645:A 8.17857 
28 *828:23 *828:221 5.2275 
29 *828:221 *828:223 14.97 
30 *828:223 *828:233 30.32 
31 *828:233 *828:243 38.1072 
32 *828:243 *828:247 2.53572 
33 *828:247 *828:249 5 
34 *828:249 *828:262 29.0357 
35 *828:262 *1646:A 7.75 
36 *828:247 *1647:A 5 
37 *828:233 *828:279 0.607143 
38 *828:279 *1649:A 10 
39 *828:223 *828:297 11.5 
40 *828:297 *1648:A 11.4286 
41 *828:221 *828:319 19.17 
42 *828:319 *828:323 11.1071 
43 *828:323 *1654:A 10 
44 *828:319 *828:335 2.52 
45 *828:335 *828:353 43.4329 
46 *828:353 *1656:A 10 
47 *828:335 *828:377 35.8129 
48 *828:377 *828:381 2.25 
49 *828:381 *828:383 5 
50 *828:383 *828:392 25.5357 
51 *828:392 *1657:A 7.25 
52 *828:381 *1655:A 6.60714 
*END

*D_NET *829 0.00519617
*CONN
*I *1483:CK I *D DFF_X1
*I *1658:A I *D INV_X1
*I *1371:CK I *D DFF_X1
*I *1365:CK I *D DFF_X1
*I *1370:CK I *D DFF_X1
*I *1364:CK I *D DFF_X1
*I *1366:CK I *D DFF_X1
*I *904:CK I *D DFF_X1
*I *906:CK I *D DFF_X1
*I *903:CK I *D DFF_X1
*I *905:CK I *D DFF_X1
*I *1478:CK I *D DFF_X1
*I *1642:Z O *D BUF_X4
*CAP
1 *1483:CK 0
2 *1658:A 0
3 *1371:CK 0.000130617
4 *1365:CK 0
5 *1370:CK 0
6 *1364:CK 4.27017e-05
7 *1366:CK 3.70002e-05
8 *904:CK 9.93642e-05
9 *906:CK 0
10 *903:CK 0
11 *905:CK 0.000171116
12 *1478:CK 8.87821e-05
13 *1642:Z 4.01346e-05
14 *829:106 0.00018733
15 *829:92 0.000210167
16 *829:47 0.000446272
17 *829:45 0.000435174
18 *829:41 0.000567484
19 *829:39 0.00036372
20 *829:37 0.000261736
21 *829:33 0.000351219
22 *829:18 0.0003982
23 *829:12 0.000164398
24 *829:8 0.000113968
25 *904:CK *892:A 8.62655e-06
26 *904:CK *845:18 0
27 *905:CK *896:A 0
28 *829:45 *881:A2 6.77896e-05
29 *829:45 *881:A3 0
30 *829:45 *845:24 6.70962e-05
31 *829:45 *846:18 7.83167e-05
32 *829:45 *846:31 0.000125994
33 *829:45 *847:18 1.49198e-05
34 *829:47 *847:18 3.83453e-06
35 *878:A2 *829:47 3.51846e-05
36 *883:B *829:45 5.36441e-07
37 *885:B1 *829:47 1.04928e-05
38 *885:B2 *829:45 0
39 *897:A2 *905:CK 2.16443e-05
40 *897:A2 *829:47 7.34989e-06
41 *903:D *829:47 2.75346e-06
42 *904:D *904:CK 6.38328e-07
43 *906:D *829:45 2.38139e-06
44 *906:D *829:47 4.79658e-06
45 *1008:A *1364:CK 1.88906e-05
46 *1016:A *1366:CK 8.26038e-06
47 *1016:A *829:39 0
48 *1016:A *829:92 0
49 *1018:A *829:33 5.23859e-06
50 *1018:A *829:37 3.35796e-05
51 *1018:A *829:106 1.26998e-05
52 *1048:A *829:12 1.87369e-06
53 *1049:A *1371:CK 3.39537e-05
54 *1062:A1 *1364:CK 0
55 *1062:A1 *829:92 0
56 *1142:A1 *829:33 1.93795e-05
57 *1173:A1 *829:41 0
58 *1174:B2 *829:33 1.04526e-05
59 *1211:A2 *829:33 8.88497e-06
60 *1330:B2 *829:12 2.37615e-05
61 *1370:D *1364:CK 1.43542e-05
62 *1478:D *1478:CK 2.75346e-06
63 *1483:D *829:12 7.90853e-06
64 *1672:A *904:CK 1.32348e-05
65 *48:36 *905:CK 0
66 *48:42 *905:CK 0
67 *48:42 *829:47 3.58094e-06
68 *61:12 *904:CK 0
69 *76:8 *905:CK 1.6535e-05
70 *76:18 *905:CK 5.31432e-05
71 *365:89 *829:12 1.28122e-06
72 *365:95 *829:18 0
73 *467:37 *1371:CK 7.66905e-06
74 *467:48 *1371:CK 2.26645e-05
75 *467:48 *829:106 1.36076e-05
76 *467:52 *1366:CK 8.43215e-07
77 *467:52 *829:37 1.75677e-05
78 *467:52 *829:106 1.59582e-06
79 *467:62 *1366:CK 1.05232e-05
80 *467:62 *829:92 0
81 *483:44 *829:8 5.74951e-06
82 *483:46 *1478:CK 2.13682e-06
83 *483:46 *829:18 1.78598e-05
84 *483:52 *1478:CK 1.72966e-05
85 *484:50 *829:8 1.88906e-05
86 *484:50 *829:12 2.85958e-05
87 *484:64 *1478:CK 1.25557e-05
88 *484:64 *829:12 5.55202e-05
89 *484:64 *829:18 8.56272e-05
90 *484:76 *1478:CK 2.59575e-05
91 *664:8 *829:106 0
92 *670:8 *1371:CK 0
*RES
1 *1642:Z *829:8 10.1786 
2 *829:8 *829:12 11.1786 
3 *829:12 *829:18 12.4286 
4 *829:18 *1478:CK 15.8571 
5 *829:18 *829:33 35.3572 
6 *829:33 *829:37 14.25 
7 *829:37 *829:39 1.60714 
8 *829:39 *829:41 32.1429 
9 *829:41 *829:45 26.9643 
10 *829:45 *829:47 30.25 
11 *829:47 *905:CK 35.6072 
12 *829:47 *903:CK 5 
13 *829:45 *906:CK 5 
14 *829:41 *904:CK 20.25 
15 *829:39 *1366:CK 14.75 
16 *829:37 *829:92 23.3929 
17 *829:92 *1364:CK 10.75 
18 *829:92 *1370:CK 5 
19 *829:33 *829:106 6.75 
20 *829:106 *1365:CK 5 
21 *829:106 *1371:CK 20.6786 
22 *829:12 *1658:A 5 
23 *829:8 *1483:CK 5 
*END

*D_NET *839 0.00543499
*CONN
*I *1464:CK I *D DFF_X1
*I *1504:CK I *D DFF_X2
*I *1503:CK I *D DFF_X1
*I *1474:CK I *D DFF_X1
*I *1450:CK I *D DFF_X1
*I *1466:CK I *D DFF_X1
*I *1468:CK I *D DFF_X1
*I *1473:CK I *D DFF_X1
*I *1472:CK I *D DFF_X1
*I *1448:CK I *D DFF_X1
*I *1470:CK I *D DFF_X1
*I *1446:CK I *D DFF_X1
*I *1449:CK I *D DFF_X1
*I *1652:Z O *D BUF_X4
*CAP
1 *1464:CK 0
2 *1504:CK 3.65055e-05
3 *1503:CK 3.21958e-05
4 *1474:CK 1.62503e-05
5 *1450:CK 3.69674e-05
6 *1466:CK 0
7 *1468:CK 0.000119531
8 *1473:CK 8.71307e-06
9 *1472:CK 5.25568e-05
10 *1448:CK 0
11 *1470:CK 2.08413e-05
12 *1446:CK 0
13 *1449:CK 0
14 *1652:Z 0.000234442
15 *839:126 0.000293673
16 *839:104 8.19725e-05
17 *839:102 0.000586164
18 *839:93 0.000435821
19 *839:89 0.000131083
20 *839:57 0.00018117
21 *839:42 0.00017318
22 *839:35 0.000142438
23 *839:31 0.000168833
24 *839:22 0.000398584
25 *839:16 0.000505926
26 *839:12 0.00029136
27 *967:A *839:102 5.11574e-06
28 *967:A *839:104 0
29 *967:A *839:126 0
30 *969:A *839:22 1.55581e-05
31 *971:A *839:57 1.64551e-05
32 *975:A *839:35 8.26038e-06
33 *980:A *839:102 2.52965e-06
34 *1066:B2 *839:102 3.81909e-05
35 *1067:C1 *839:102 0
36 *1077:B2 *839:22 7.94852e-06
37 *1216:B2 *839:102 3.35822e-05
38 *1218:A1 *839:57 0
39 *1218:B1 *1472:CK 1.21717e-05
40 *1218:B2 *1472:CK 1.11753e-05
41 *1218:B2 *839:57 0
42 *1220:B2 *839:35 3.28688e-05
43 *1225:B1 *839:93 7.87454e-06
44 *1225:B1 *839:102 2.36394e-05
45 *1227:B2 *1468:CK 0
46 *1227:B2 *839:12 1.26998e-05
47 *1227:B2 *839:89 3.85541e-05
48 *1227:B2 *839:93 1.26173e-05
49 *1242:A1 *839:102 2.4792e-05
50 *1244:B2 *839:22 0
51 *1245:B1 *839:57 3.58094e-06
52 *1245:B2 *1472:CK 0
53 *1245:B2 *839:57 1.57087e-05
54 *1247:B1 *839:57 1.28019e-05
55 *1247:B2 *839:35 4.21903e-05
56 *1247:B2 *839:42 4.56266e-05
57 *1247:B2 *839:57 6.11168e-05
58 *1464:D *839:16 0
59 *1468:D *1468:CK 2.75346e-06
60 *1472:D *1472:CK 8.43215e-07
61 *1473:D *839:22 1.64551e-05
62 *1473:D *839:31 2.01083e-05
63 *1474:D *1450:CK 3.96215e-05
64 *1474:D *1474:CK 9.74193e-06
65 *1474:D *839:102 0
66 *1497:A3 *1503:CK 1.58933e-05
67 *1497:A3 *1504:CK 0
68 *1504:D *1504:CK 7.16188e-07
69 *1638:A *1503:CK 0
70 *1638:A *1504:CK 4.69886e-06
71 *441:20 *839:104 0
72 *441:20 *839:126 0
73 *474:44 *1468:CK 0
74 *474:54 *839:12 9.85795e-06
75 *474:94 *1504:CK 4.26902e-05
76 *474:94 *839:126 0.000366767
77 *487:26 *839:93 0
78 *487:26 *839:102 0
79 *487:44 *839:22 7.87811e-06
80 *487:44 *839:31 1.07733e-05
81 *487:44 *839:35 1.42432e-05
82 *487:87 *839:35 1.05489e-05
83 *487:97 *1472:CK 6.38328e-07
84 *487:97 *839:35 4.35922e-05
85 *487:97 *839:42 5.01029e-05
86 *487:97 *839:57 0.000215948
87 *489:31 *839:12 7.77645e-05
88 *489:54 *839:12 2.35341e-05
89 *493:41 *1468:CK 0
90 *493:41 *839:89 0
91 *493:41 *839:93 0
92 *749:8 *1474:CK 0
93 *749:8 *839:102 0
94 *769:10 *839:35 0
95 *773:8 *839:126 0
96 *827:12 *839:93 0
97 *827:23 *839:93 0
98 *827:29 *839:102 0
99 *828:113 *839:12 1.65484e-05
*RES
1 *1652:Z *839:12 45 
2 *839:12 *839:16 7.96429 
3 *839:16 *839:22 43.6072 
4 *839:22 *1449:CK 5 
5 *839:22 *839:31 5.67857 
6 *839:31 *839:35 16.6786 
7 *839:35 *1446:CK 5 
8 *839:35 *839:42 4.75 
9 *839:42 *1470:CK 16.6071 
10 *839:42 *839:57 21.8572 
11 *839:57 *1448:CK 5 
12 *839:57 *1472:CK 11.6786 
13 *839:31 *1473:CK 5.92857 
14 *839:16 *1468:CK 22.25 
15 *839:12 *839:89 3.75 
16 *839:89 *839:93 11.1786 
17 *839:93 *1466:CK 5 
18 *839:93 *839:102 43.25 
19 *839:102 *839:104 2.96429 
20 *839:104 *1450:CK 14.6786 
21 *839:104 *1474:CK 12.25 
22 *839:102 *839:126 30.7857 
23 *839:126 *1503:CK 13.75 
24 *839:126 *1504:CK 14.5357 
25 *839:89 *1464:CK 5 
*END

*D_NET *840 0.00423913
*CONN
*I *1378:CK I *D DFF_X1
*I *1505:CK I *D DFF_X1
*I *1506:CK I *D DFF_X1
*I *1452:CK I *D DFF_X1
*I *1454:CK I *D DFF_X1
*I *1462:CK I *D DFF_X1
*I *1458:CK I *D DFF_X1
*I *1456:CK I *D DFF_X1
*I *1668:A I *D BUF_X4
*I *1460:CK I *D DFF_X1
*I *1653:Z O *D BUF_X4
*CAP
1 *1378:CK 0.000137301
2 *1505:CK 6.92112e-06
3 *1506:CK 0
4 *1452:CK 0.000241406
5 *1454:CK 0
6 *1462:CK 0
7 *1458:CK 0
8 *1456:CK 0.000196939
9 *1668:A 0
10 *1460:CK 0.000136816
11 *1653:Z 0.000201021
12 *840:113 0.000228671
13 *840:104 0.000210375
14 *840:88 0.000288924
15 *840:86 0.000262172
16 *840:75 0.000144565
17 *840:43 0.000417545
18 *840:39 0.000364903
19 *840:16 0.000249379
20 *1378:CK *851:34 0.000129157
21 *1378:CK *851:57 0.000211373
22 *1452:CK *851:40 0
23 *1452:CK *851:42 0
24 *1505:CK *851:34 1.72405e-05
25 *840:88 *851:40 0
26 data_out[7] *1378:CK 4.95679e-05
27 *974:A *1452:CK 4.38852e-05
28 *989:A *840:39 0
29 *989:A *840:75 0
30 *1125:A *840:88 0
31 *1125:A *840:104 0
32 *1125:B1 *840:39 0
33 *1229:B1 *840:16 6.70173e-05
34 *1234:B1 *1456:CK 0.000132432
35 *1234:B2 *1456:CK 4.00689e-05
36 *1234:B2 *840:43 1.78252e-06
37 *1238:A1 *840:39 1.58933e-05
38 *1238:B1 *1452:CK 0
39 *1238:B2 *1452:CK 0
40 *1378:D *1378:CK 2.02052e-05
41 *1452:D *1452:CK 6.38328e-07
42 *1454:D *1452:CK 3.87239e-05
43 *1454:D *840:88 2.75346e-06
44 *1456:D *1456:CK 6.38328e-07
45 *1458:D *1456:CK 1.41455e-05
46 *1460:D *1460:CK 0
47 *1462:D *840:39 4.45934e-05
48 *1462:D *840:75 4.77061e-05
49 *1500:A *840:113 1.86809e-06
50 *1653:A *840:16 2.08416e-06
51 *23:10 *840:113 0
52 *23:51 *840:104 6.11168e-05
53 *23:51 *840:113 8.4215e-05
54 *23:61 *840:86 2.61627e-06
55 *23:61 *840:104 8.23282e-05
56 *24:10 *840:104 0
57 *24:10 *840:113 0
58 *24:56 *840:113 0
59 *427:38 *840:86 1.82195e-05
60 *476:77 *840:39 2.52965e-06
61 *476:77 *840:43 0
62 *489:60 *1460:CK 0
63 *489:60 *840:16 0
64 *828:89 *1456:CK 0
65 *828:95 *1456:CK 0
66 *828:104 *1456:CK 3.51536e-06
67 *828:113 *840:16 1.58752e-05
*RES
1 *1653:Z *840:16 27.1071 
2 *840:16 *1460:CK 18.8929 
3 *840:16 *1668:A 5 
4 *1653:Z *840:39 15.1786 
5 *840:39 *840:43 28.3214 
6 *840:43 *1456:CK 34.8929 
7 *840:43 *1458:CK 10 
8 *840:39 *840:75 11.3571 
9 *840:75 *1462:CK 10 
10 *840:75 *840:86 15.4286 
11 *840:86 *840:88 4.75 
12 *840:88 *1454:CK 5 
13 *840:88 *1452:CK 31.6786 
14 *840:86 *840:104 15.75 
15 *840:104 *1506:CK 5 
16 *840:104 *840:113 15.25 
17 *840:113 *1505:CK 10.9286 
18 *840:113 *1378:CK 32.6429 
*END

*D_NET *842 0.00478194
*CONN
*I *1439:CK I *D DFF_X1
*I *1443:CK I *D DFF_X1
*I *1436:CK I *D DFF_X1
*I *1419:CK I *D DFF_X1
*I *1415:CK I *D DFF_X1
*I *1437:CK I *D DFF_X1
*I *1413:CK I *D DFF_X1
*I *1431:CK I *D DFF_X1
*I *1429:CK I *D DFF_X1
*I *1670:A I *D BUF_X4
*I *1655:Z O *D BUF_X4
*CAP
1 *1439:CK 0
2 *1443:CK 2.04166e-05
3 *1436:CK 0.000195491
4 *1419:CK 8.71307e-06
5 *1415:CK 5.12614e-05
6 *1437:CK 9.29069e-06
7 *1413:CK 7.68821e-05
8 *1431:CK 4.86316e-05
9 *1429:CK 0
10 *1670:A 2.75607e-05
11 *1655:Z 0.000140919
12 *842:103 0.000354909
13 *842:90 0.000326373
14 *842:86 0.000291338
15 *842:69 0.000337456
16 *842:58 0.000190535
17 *842:47 0.000275476
18 *842:36 0.000356004
19 *842:23 0.000318252
20 *842:8 0.000370223
21 *945:A *1415:CK 2.07643e-05
22 *949:A *1413:CK 9.74263e-06
23 *959:A *1431:CK 3.90865e-05
24 *963:A *842:36 1.45878e-05
25 *964:A *1436:CK 1.97902e-05
26 *1040:A *842:103 4.9678e-06
27 *1041:A *842:103 6.80813e-06
28 *1115:A1 *1415:CK 2.13261e-05
29 *1116:B *1431:CK 0
30 *1145:A1 *1413:CK 2.07643e-05
31 *1145:B2 *1413:CK 2.16072e-07
32 *1152:A1 *1436:CK 7.19036e-06
33 *1153:B *842:8 0
34 *1254:B1 *1436:CK 4.38346e-06
35 *1254:B1 *842:103 3.23363e-05
36 *1256:B1 *842:69 0
37 *1256:B2 *1415:CK 2.16072e-07
38 *1256:B2 *842:69 0
39 *1256:B2 *842:86 4.95679e-05
40 *1258:B1 *1413:CK 5.11574e-06
41 *1258:B1 *1437:CK 0
42 *1258:B1 *842:47 0
43 *1258:B1 *842:69 0
44 *1258:B2 *1413:CK 1.01818e-05
45 *1258:B2 *1437:CK 1.25189e-05
46 *1265:A2 *1431:CK 2.08416e-06
47 *1265:A2 *842:36 4.95679e-05
48 *1265:B1 *842:36 8.43215e-07
49 *1283:A2 *842:47 0.000106626
50 *1283:A2 *842:58 1.2453e-05
51 *1283:A2 *842:69 0.000437953
52 *1283:B1 *842:90 3.19164e-06
53 *1283:B1 *842:103 0
54 *1283:B2 *842:69 1.72042e-05
55 *1333:B1 *1443:CK 0
56 *1333:B2 *842:103 0
57 *1334:A *842:8 3.09411e-06
58 *1334:B *842:8 4.93379e-06
59 *1347:A1 *1443:CK 0
60 *1431:D *1431:CK 0
61 *1435:D *842:8 0
62 *1436:D *1436:CK 3.19164e-07
63 *1437:D *1437:CK 1.21774e-06
64 *1439:D *842:86 0
65 *1439:D *842:90 1.21774e-06
66 *1443:D *842:103 1.09294e-05
67 *266:8 *842:36 2.06764e-05
68 *266:8 *842:47 8.93174e-06
69 *476:285 *1413:CK 0
70 *496:71 *1413:CK 2.11815e-06
71 *496:103 *842:103 1.26998e-05
72 *497:19 *842:23 0.000167181
73 *497:19 *842:36 2.14856e-06
74 *498:53 *842:8 0
75 *502:31 *842:103 0
76 *521:20 *1436:CK 3.97999e-06
77 *521:20 *1443:CK 1.00033e-05
78 *521:20 *842:103 1.53342e-05
79 *521:22 *1436:CK 5.64408e-05
80 *679:10 *1436:CK 5.01029e-05
81 *775:10 *1436:CK 9.07146e-05
82 *776:10 *1413:CK 0
83 *778:12 *842:86 1.06765e-05
84 *826:91 *842:90 0
85 *826:91 *842:103 0
86 *828:377 *842:8 0
87 *828:381 *842:8 0
*RES
1 *1655:Z *842:8 23.75 
2 *842:8 *1670:A 12.2857 
3 *842:8 *842:23 29.1429 
4 *842:23 *1429:CK 5 
5 *842:23 *842:36 18.8214 
6 *842:36 *1431:CK 15.75 
7 *842:36 *842:47 22.6429 
8 *842:47 *1413:CK 19.25 
9 *842:47 *842:58 0.928572 
10 *842:58 *1437:CK 11.25 
11 *842:58 *842:69 26.7143 
12 *842:69 *1415:CK 16.6786 
13 *842:69 *842:86 17.2143 
14 *842:86 *842:90 18.0357 
15 *842:90 *1419:CK 5.92857 
16 *842:90 *842:103 20.6786 
17 *842:103 *1436:CK 35.6786 
18 *842:103 *1443:CK 12.2857 
19 *842:86 *1439:CK 5 
*END

*D_NET *843 0.00530154
*CONN
*I *1426:CK I *D DFF_X1
*I *1424:CK I *D DFF_X1
*I *1377:CK I *D DFF_X1
*I *1376:CK I *D DFF_X1
*I *1425:CK I *D DFF_X1
*I *1430:CK I *D DFF_X1
*I *1671:A I *D INV_X2
*I *1374:CK I *D DFF_X1
*I *1372:CK I *D DFF_X1
*I *1420:CK I *D DFF_X1
*I *1422:CK I *D DFF_X1
*I *1656:Z O *D BUF_X4
*CAP
1 *1426:CK 5.72524e-05
2 *1424:CK 0
3 *1377:CK 4.07467e-05
4 *1376:CK 0.000104551
5 *1425:CK 0
6 *1430:CK 0.000289604
7 *1671:A 1.92997e-05
8 *1374:CK 0.000161943
9 *1372:CK 9.1348e-05
10 *1420:CK 0.000116326
11 *1422:CK 8.71307e-06
12 *1656:Z 0.000265376
13 *843:126 0.000118375
14 *843:100 0.000256365
15 *843:96 0.000347592
16 *843:73 0.000298317
17 *843:38 0.000476044
18 *843:30 0.000264732
19 *843:19 0.000160135
20 *843:17 0.000105708
21 *843:8 0.000174553
22 *1376:CK *851:57 0.000171058
23 *1430:CK *844:10 8.58183e-06
24 *843:100 *851:57 0.000464518
25 *938:A *843:96 3.09411e-06
26 *940:A *843:17 2.58428e-06
27 *942:A *843:126 1.40196e-06
28 *946:A *1420:CK 2.83922e-05
29 *946:A *1430:CK 3.12109e-05
30 *946:A *843:17 0
31 *946:A *843:19 2.27826e-05
32 *950:A *1420:CK 1.14895e-05
33 *961:A *1430:CK 1.88334e-06
34 *1090:A *1377:CK 2.07643e-05
35 *1090:B2 *1372:CK 6.36738e-07
36 *1090:B2 *1374:CK 1.77914e-05
37 *1105:A *1376:CK 5.06354e-05
38 *1105:B1 *1376:CK 4.12459e-06
39 *1129:A2 *1430:CK 0
40 *1131:A *1430:CK 0
41 *1131:C1 *1430:CK 0
42 *1134:B1 *1374:CK 2.07669e-05
43 *1163:A *1372:CK 1.1025e-05
44 *1272:A2 *843:8 1.19839e-05
45 *1272:B2 *843:8 8.7424e-06
46 *1272:B2 *843:17 6.38784e-06
47 *1273:A1 *843:126 3.09411e-06
48 *1273:A2 *843:96 4.88546e-05
49 *1273:A2 *843:126 7.19036e-06
50 *1275:B2 *843:30 5.03652e-05
51 *1275:B2 *843:38 2.74386e-05
52 *1372:D *1372:CK 2.75346e-06
53 *1374:D *1374:CK 5.01004e-05
54 *1424:D *843:126 8.34424e-06
55 *1425:D *1422:CK 0
56 *1425:D *843:8 5.94562e-06
57 *1425:D *843:17 7.50073e-05
58 *1425:D *843:30 0
59 *1426:D *1426:CK 0
60 *10:12 *843:38 1.50063e-05
61 *10:21 *1372:CK 7.179e-06
62 *10:23 *1374:CK 0
63 *10:23 *1377:CK 2.07643e-05
64 *12:19 *1376:CK 0
65 *268:8 *1430:CK 0
66 *378:10 *843:100 0.000313207
67 *393:16 *1372:CK 0
68 *434:8 *1374:CK 0.000157813
69 *434:8 *1430:CK 0
70 *474:106 *1426:CK 0
71 *476:222 *843:30 0
72 *476:222 *843:38 0
73 *498:38 *1430:CK 0
74 *499:61 *1420:CK 0.000182236
75 *499:61 *1671:A 5.90677e-06
76 *499:61 *843:17 1.03048e-06
77 *499:61 *843:19 1.3145e-05
78 *499:82 *843:96 0
79 *499:97 *843:96 7.19036e-06
80 *500:12 *843:8 6.07323e-06
81 *500:12 *843:96 0
82 *500:33 *1671:A 2.83922e-05
83 *500:91 *843:96 3.51536e-06
84 *673:6 *843:17 0
85 *677:10 *1426:CK 0
86 *677:10 *843:96 0
87 *677:10 *843:126 0
88 *827:148 *1372:CK 4.14913e-06
*RES
1 *1656:Z *843:8 14.6786 
2 *843:8 *1422:CK 5.92857 
3 *843:8 *843:17 10.25 
4 *843:17 *843:19 3.25 
5 *843:19 *1420:CK 22.25 
6 *843:19 *843:30 7.96429 
7 *843:30 *843:38 28.6429 
8 *843:38 *1372:CK 15.0357 
9 *843:38 *1374:CK 36.3929 
10 *843:30 *1671:A 12.75 
11 *843:17 *843:73 0.928572 
12 *843:73 *1430:CK 47.1429 
13 *843:73 *1425:CK 5 
14 *1656:Z *843:96 23.25 
15 *843:96 *843:100 29.6786 
16 *843:100 *1376:CK 24.8214 
17 *843:100 *1377:CK 15.6786 
18 *843:96 *843:126 6.67857 
19 *843:126 *1424:CK 5 
20 *843:126 *1426:CK 10.75 
*END

*D_NET *844 0.00553195
*CONN
*I *1442:CK I *D DFF_X1
*I *1441:CK I *D DFF_X1
*I *1417:CK I *D DFF_X1
*I *1418:CK I *D DFF_X1
*I *1440:CK I *D DFF_X1
*I *1416:CK I *D DFF_X1
*I *1434:CK I *D DFF_X1
*I *1432:CK I *D DFF_X1
*I *1414:CK I *D DFF_X1
*I *1438:CK I *D DFF_X1
*I *1412:CK I *D DFF_X1
*I *1428:CK I *D DFF_X1
*I *1433:CK I *D DFF_X1
*I *1657:Z O *D BUF_X4
*CAP
1 *1442:CK 5.67157e-05
2 *1441:CK 9.2538e-05
3 *1417:CK 6.62225e-06
4 *1418:CK 0
5 *1440:CK 4.69406e-05
6 *1416:CK 9.11724e-06
7 *1434:CK 6.61071e-05
8 *1432:CK 0
9 *1414:CK 1.50803e-05
10 *1438:CK 0
11 *1412:CK 0.000121879
12 *1428:CK 0.000127319
13 *1433:CK 0.000140328
14 *1657:Z 0.000117429
15 *844:116 0.000415423
16 *844:114 0.000393611
17 *844:103 0.000219387
18 *844:87 5.60579e-05
19 *844:71 0.000304609
20 *844:67 0.00025145
21 *844:65 0.000528342
22 *844:52 0.000417977
23 *844:45 0.000118223
24 *844:34 0.000391581
25 *844:21 0.000383678
26 *844:10 0.00027638
27 *947:A *844:52 1.32143e-05
28 *952:A *844:116 1.09316e-05
29 *953:A *1434:CK 0
30 *955:A *1433:CK 3.64341e-05
31 *956:A *844:65 4.67277e-05
32 *957:A *844:71 3.60147e-05
33 *960:A *844:65 0
34 *961:A *1433:CK 1.53342e-05
35 *961:A *844:10 0
36 *961:A *844:21 0
37 *961:A *844:34 0
38 *1070:A1 *844:116 3.11138e-05
39 *1070:A2 *844:116 2.29485e-05
40 *1085:A1 *1417:CK 6.56185e-06
41 *1085:A1 *1441:CK 2.50004e-05
42 *1085:A1 *844:116 1.88906e-05
43 *1085:B2 *844:116 0
44 *1100:A2 *844:65 1.68643e-06
45 *1130:A1 *844:52 1.12784e-05
46 *1130:A1 *844:65 4.38826e-05
47 *1130:B2 *844:65 0
48 *1255:B2 *844:65 3.28714e-05
49 *1257:A1 *1412:CK 6.05718e-06
50 *1257:A1 *844:45 5.43491e-06
51 *1257:A1 *844:52 1.05232e-05
52 *1257:B2 *1412:CK 1.11194e-05
53 *1257:B2 *844:34 1.07146e-05
54 *1257:B2 *844:45 1.32183e-05
55 *1257:B2 *844:52 6.47615e-06
56 *1412:D *1412:CK 1.21774e-06
57 *1428:D *1428:CK 6.38328e-07
58 *1430:CK *844:10 8.58183e-06
59 *1432:D *1434:CK 6.38328e-07
60 *1434:D *1434:CK 0
61 *1440:D *1440:CK 2.56379e-05
62 *1440:D *844:65 4.16281e-06
63 *1442:D *1442:CK 0
64 *1442:D *844:116 0
65 *377:18 *844:103 0
66 *433:8 *844:52 4.48636e-06
67 *433:8 *844:65 0
68 *473:89 *1441:CK 9.77662e-06
69 *474:140 *844:71 0
70 *496:12 *1412:CK 0
71 *497:38 *844:10 0
72 *497:51 *1433:CK 4.47926e-05
73 *497:58 *1433:CK 5.01029e-05
74 *498:38 *1428:CK 0
75 *498:38 *1433:CK 8.33602e-06
76 *683:12 *844:67 9.55059e-06
77 *683:12 *844:71 1.96924e-05
78 *683:12 *844:103 2.52514e-05
79 *685:12 *844:103 1.04526e-05
80 *685:12 *844:114 1.97744e-05
81 *685:26 *844:103 0
82 *777:12 *844:52 0
83 *779:10 *1440:CK 0
84 *779:10 *844:65 0
85 *779:10 *844:103 0
86 *781:12 *1442:CK 0
87 *781:12 *844:116 0
88 *825:28 *844:65 5.78409e-05
89 *825:34 *844:65 1.03704e-05
90 *826:36 *1434:CK 0
91 *826:36 *844:71 5.0216e-06
92 *826:38 *844:71 0
93 *826:85 *1441:CK 4.48126e-05
94 *826:85 *844:116 0
95 *827:244 *844:34 0.000197586
*RES
1 *1657:Z *844:10 21.6786 
2 *844:10 *1433:CK 27.75 
3 *844:10 *844:21 1.60714 
4 *844:21 *1428:CK 22.75 
5 *844:21 *844:34 33.0714 
6 *844:34 *1412:CK 17.75 
7 *844:34 *844:45 4.17857 
8 *844:45 *1438:CK 5 
9 *844:45 *844:52 10.25 
10 *844:52 *1414:CK 6.60714 
11 *844:52 *844:65 41.3572 
12 *844:65 *844:67 1.60714 
13 *844:67 *844:71 32.3929 
14 *844:71 *1432:CK 5 
15 *844:71 *1434:CK 11.6786 
16 *844:67 *844:87 5 
17 *844:87 *1416:CK 5.92857 
18 *844:87 *1440:CK 10.75 
19 *844:65 *844:103 22.6429 
20 *844:103 *1418:CK 10 
21 *844:103 *844:114 7.96429 
22 *844:114 *844:116 34.75 
23 *844:116 *1417:CK 5.92857 
24 *844:116 *1441:CK 17.5357 
25 *844:114 *1442:CK 10.75 
*END

*D_NET *830 0.00410774
*CONN
*I *1363:CK I *D DFF_X1
*I *1357:CK I *D DFF_X1
*I *1358:CK I *D DFF_X1
*I *1476:CK I *D DFF_X1
*I *1482:CK I *D DFF_X1
*I *1477:CK I *D DFF_X1
*I *1362:CK I *D DFF_X1
*I *1356:CK I *D DFF_X1
*I *1659:A I *D BUF_X4
*I *1643:Z O *D BUF_X4
*CAP
1 *1363:CK 0.000103562
2 *1357:CK 0
3 *1358:CK 0
4 *1476:CK 0
5 *1482:CK 8.05142e-05
6 *1477:CK 0.000255035
7 *1362:CK 0
8 *1356:CK 0.000153039
9 *1659:A 5.76548e-05
10 *1643:Z 0
11 *830:86 0.000152015
12 *830:63 0.00057534
13 *830:41 0.000219934
14 *830:39 0.000364747
15 *830:37 0.000151235
16 *830:27 0.000320632
17 *830:8 0.000325466
18 *830:4 0.000152929
19 *995:A *1482:CK 5.01331e-06
20 *1003:A *1477:CK 6.18822e-06
21 *1007:A *1482:CK 3.74891e-05
22 *1009:A *1356:CK 1.51469e-05
23 *1021:A *1356:CK 0
24 *1062:A1 *1477:CK 1.19556e-05
25 *1062:B2 *1482:CK 1.07733e-05
26 *1062:B2 *830:86 2.6197e-05
27 *1063:B2 *1356:CK 1.21523e-05
28 *1063:C1 *1356:CK 0
29 *1142:B2 *1477:CK 3.82997e-06
30 *1154:A2 *830:63 1.33615e-05
31 *1180:A1 *1356:CK 3.89891e-06
32 *1180:A2 *830:41 5.4899e-05
33 *1180:B2 *830:41 1.26074e-05
34 *1188:A1 *830:37 1.52083e-06
35 *1188:B1 *830:37 9.83475e-07
36 *1192:A1 *1356:CK 1.67593e-05
37 *1192:B2 *830:63 0
38 *1206:A2 *1482:CK 4.8503e-05
39 *1206:A2 *830:86 2.49793e-05
40 *1206:B2 *1482:CK 0
41 *1210:A1 *1477:CK 1.18232e-06
42 *1210:B2 *1477:CK 4.31719e-05
43 *1211:A2 *1477:CK 2.237e-05
44 *1211:B2 *1477:CK 3.28688e-05
45 *1356:D *1356:CK 1.02224e-05
46 *1357:D *830:27 4.38826e-05
47 *1358:D *830:37 1.29217e-05
48 *1358:D *830:39 7.16188e-07
49 *1363:D *1363:CK 0
50 *1363:D *830:8 0
51 *1363:D *830:27 3.02351e-05
52 *1477:D *1477:CK 7.83734e-05
53 *1482:D *1482:CK 8.30282e-06
54 *363:90 *1477:CK 1.07633e-05
55 *363:90 *830:63 3.70422e-05
56 *363:90 *830:86 3.81848e-06
57 *365:95 *1477:CK 1.42464e-05
58 *365:99 *1477:CK 1.34708e-05
59 *365:114 *830:86 0
60 *369:10 *1356:CK 0
61 *369:10 *830:63 0
62 *411:24 *1659:A 0
63 *430:10 *830:37 0
64 *470:22 *1363:CK 5.52959e-06
65 *470:28 *830:27 0.0001424
66 *470:34 *830:27 5.1472e-05
67 *470:34 *830:37 6.11168e-05
68 *470:46 *830:37 1.88811e-05
69 *470:46 *830:39 0
70 *470:46 *830:41 0
71 *470:46 *830:63 0
72 *471:33 *1363:CK 5.52959e-06
73 *471:53 *830:37 3.90865e-05
74 *471:53 *830:39 7.14198e-05
75 *471:53 *830:41 4.11292e-05
76 *476:161 *830:37 1.49658e-06
77 *483:69 *1477:CK 2.51177e-05
78 *483:69 *830:86 8.60019e-06
79 *484:76 *1477:CK 3.55632e-05
80 *484:97 *1477:CK 3.95226e-06
81 *518:8 *1659:A 0
82 *518:8 *830:27 0
83 *737:12 *1477:CK 1.4491e-05
*RES
1 *1643:Z *830:4 5 
2 *830:4 *830:8 10.75 
3 *830:8 *1659:A 15.8929 
4 *830:8 *830:27 33.9286 
5 *830:27 *830:37 23.4643 
6 *830:37 *830:39 6.75 
7 *830:39 *830:41 9.25 
8 *830:41 *1356:CK 31.6071 
9 *830:41 *1362:CK 5 
10 *830:39 *830:63 32.3929 
11 *830:63 *1477:CK 45.4643 
12 *830:63 *830:86 14.25 
13 *830:86 *1482:CK 16.1786 
14 *830:86 *1476:CK 5 
15 *830:37 *1358:CK 5 
16 *830:27 *1357:CK 5 
17 *830:4 *1363:CK 26 
*END

*D_NET *831 0.00407005
*CONN
*I *1467:CK I *D DFF_X1
*I *1368:CK I *D DFF_X1
*I *1367:CK I *D DFF_X1
*I *1369:CK I *D DFF_X1
*I *1519:CK I *D DFF_X1
*I *907:CK I *D DFF_X1
*I *1518:CK I *D DFF_X1
*I *1481:CK I *D DFF_X1
*I *1660:A I *D BUF_X4
*I *1644:Z O *D BUF_X4
*CAP
1 *1467:CK 0.000307448
2 *1368:CK 0
3 *1367:CK 0
4 *1369:CK 0.000147983
5 *1519:CK 0
6 *907:CK 0.000225038
7 *1518:CK 9.00777e-05
8 *1481:CK 4.08076e-05
9 *1660:A 7.23444e-05
10 *1644:Z 0
11 *831:79 0.000293823
12 *831:42 0.000361305
13 *831:40 0.00037417
14 *831:38 0.000606942
15 *831:36 0.000194687
16 *831:34 0.00049537
17 *831:8 0.000203092
18 *831:4 0.000216296
19 *902:B1 *907:CK 4.76488e-05
20 *1010:A *1369:CK 1.02224e-05
21 *1012:A *831:36 2.52511e-05
22 *1012:A *831:38 4.12911e-06
23 *1014:A *831:79 7.72792e-06
24 *1030:A *831:40 0
25 *1097:A1 *831:34 1.49198e-05
26 *1097:A1 *831:36 1.1429e-05
27 *1166:C2 *831:79 0
28 *1171:A1 *831:38 0
29 *1171:A1 *831:40 0
30 *1171:B1 *831:79 0
31 *1171:B2 *831:38 0
32 *1171:B2 *831:79 8.62199e-06
33 *1172:A2 *831:79 0
34 *1207:B2 *1481:CK 0
35 *1207:B2 *831:8 3.65322e-06
36 *1208:B1 *1467:CK 0
37 *1368:D *831:38 0
38 *1369:D *1369:CK 4.45934e-05
39 *1467:D *1467:CK 6.38328e-07
40 *1480:D *1467:CK 0
41 *1481:D *1481:CK 0
42 *1481:D *831:8 4.74419e-05
43 *1518:D *1518:CK 2.39679e-06
44 *1519:D *1518:CK 0
45 *6:9 *1518:CK 1.68847e-05
46 *6:9 *831:40 9.4049e-05
47 *6:9 *831:42 2.45311e-05
48 *467:29 *1369:CK 2.43809e-05
49 *467:29 *831:79 6.15812e-06
50 *467:35 *1369:CK 3.30047e-06
51 *473:10 *1369:CK 1.72191e-05
52 *484:12 *1660:A 0
53 *484:12 *831:8 2.14856e-06
54 *484:21 *831:8 5.43491e-06
55 *484:21 *831:34 1.78869e-05
*RES
1 *1644:Z *831:4 5 
2 *831:4 *831:8 15.25 
3 *831:8 *1660:A 17.0357 
4 *831:8 *1481:CK 13.6429 
5 *831:4 *831:34 18.8929 
6 *831:34 *831:36 8.39286 
7 *831:36 *831:38 13.8214 
8 *831:38 *831:40 40.2857 
9 *831:40 *831:42 6 
10 *831:42 *1518:CK 19.75 
11 *831:42 *907:CK 29.1814 
12 *831:40 *1519:CK 10 
13 *831:38 *831:79 19.75 
14 *831:79 *1369:CK 33.0357 
15 *831:79 *1367:CK 5 
16 *831:36 *1368:CK 10 
17 *831:34 *1467:CK 40.25 
*END

*D_NET *832 0.0026223
*CONN
*I *1661:A I *D INV_X4
*I *1360:CK I *D DFF_X1
*I *1480:CK I *D DFF_X1
*I *1479:CK I *D DFF_X1
*I *1361:CK I *D DFF_X1
*I *1359:CK I *D DFF_X1
*I *1645:Z O *D BUF_X4
*CAP
1 *1661:A 0
2 *1360:CK 0.000221998
3 *1480:CK 2.44476e-05
4 *1479:CK 0
5 *1361:CK 4.93962e-05
6 *1359:CK 0
7 *1645:Z 0
8 *832:47 0.000387173
9 *832:38 0.000285771
10 *832:32 0.000199801
11 *832:12 0.000157029
12 *832:4 0.000162391
13 *1001:A *832:47 3.90865e-05
14 *1112:A1 *832:38 0
15 *1112:B2 *832:38 2.56379e-05
16 *1112:B2 *832:47 4.87096e-06
17 *1177:A1 *1360:CK 8.43215e-07
18 *1194:A1 *1360:CK 3.02372e-05
19 *1208:B2 *832:47 3.35822e-05
20 *1359:D *832:12 2.0679e-05
21 *1360:D *1360:CK 8.62655e-06
22 *365:73 *832:47 1.06445e-05
23 *365:79 *832:47 2.2418e-05
24 *416:12 *832:12 0
25 *416:12 *832:32 3.84081e-05
26 *416:12 *832:38 0.00020819
27 *465:33 *1360:CK 0.000486244
28 *465:33 *1480:CK 2.86965e-05
29 *470:16 *1361:CK 1.3604e-05
30 *471:15 *1361:CK 2.6197e-05
31 *474:275 *832:47 7.16188e-07
32 *483:18 *832:47 6.63867e-05
33 *483:20 *832:47 2.34865e-05
34 *483:26 *832:38 2.6197e-05
35 *483:26 *832:47 1.95465e-05
36 *823:14 *1360:CK 0
*RES
1 *1645:Z *832:4 5 
2 *832:4 *832:12 21.6786 
3 *832:12 *1359:CK 5 
4 *832:12 *1361:CK 11.6786 
5 *832:4 *832:32 11.0357 
6 *832:32 *832:38 25.25 
7 *832:38 *1479:CK 5 
8 *832:38 *832:47 25.25 
9 *832:47 *1480:CK 12.2857 
10 *832:47 *1360:CK 42.1429 
11 *832:32 *1661:A 10 
*END

*D_NET *833 0.00453366
*CONN
*I *1394:CK I *D DFF_X1
*I *1662:A I *D INV_X1
*I *1381:CK I *D DFF_X1
*I *1406:CK I *D DFF_X1
*I *1382:CK I *D DFF_X1
*I *1386:CK I *D DFF_X1
*I *1489:CK I *D DFF_X1
*I *1491:CK I *D DFF_X1
*I *1485:CK I *D DFF_X1
*I *1486:CK I *D DFF_X1
*I *1490:CK I *D DFF_X1
*I *1484:CK I *D DFF_X1
*I *1646:Z O *D BUF_X4
*CAP
1 *1394:CK 4.94501e-05
2 *1662:A 0
3 *1381:CK 0
4 *1406:CK 0
5 *1382:CK 0
6 *1386:CK 9.22612e-05
7 *1489:CK 6.2679e-05
8 *1491:CK 0
9 *1485:CK 0
10 *1486:CK 0
11 *1490:CK 6.90834e-06
12 *1484:CK 2.98481e-05
13 *1646:Z 0.000114004
14 *833:104 0.000129242
15 *833:86 0.000281603
16 *833:69 0.000436337
17 *833:60 0.000345091
18 *833:51 0.000151727
19 *833:40 0.00028326
20 *833:36 0.000464231
21 *833:28 0.000299423
22 *833:18 0.000328971
23 *833:8 0.000285082
24 *994:A *1484:CK 3.68926e-05
25 *994:A *1490:CK 4.52304e-06
26 *994:A *833:40 8.21816e-05
27 *1004:A *833:86 1.39839e-06
28 *1006:A *1484:CK 0
29 *1006:A *833:51 0
30 *1006:A *833:60 0
31 *1047:A *833:86 7.72537e-06
32 *1060:B *1394:CK 0
33 *1126:A2 *833:69 0
34 *1137:A2 *833:18 1.05397e-05
35 *1137:A2 *833:28 9.11568e-05
36 *1137:A2 *833:36 4.45934e-05
37 *1137:B1 *833:18 0
38 *1137:B2 *833:18 3.90865e-05
39 *1196:A2 *833:60 1.53342e-05
40 *1294:B2 *833:28 5.50748e-05
41 *1294:B2 *833:36 3.35796e-05
42 *1317:B1 *833:36 2.23871e-06
43 *1317:B2 *833:36 6.84295e-05
44 *1321:B1 *833:36 0
45 *1321:B2 *833:36 0
46 *1322:B1 *833:8 0
47 *1322:B1 *833:18 0
48 *1353:A1 *833:86 0
49 *1382:D *833:36 0
50 *1382:D *833:104 6.06867e-06
51 *1386:D *1386:CK 1.3604e-05
52 *1386:D *833:36 2.16072e-07
53 *1386:D *833:104 0
54 *1394:D *1394:CK 2.75346e-06
55 *1394:D *833:8 0
56 *1406:D *833:28 0
57 *1484:D *833:60 1.28122e-06
58 *1491:D *1489:CK 1.21774e-06
59 *1491:D *833:86 5.01331e-06
60 *1646:A *1394:CK 0
61 *301:12 *833:51 2.14856e-06
62 *301:12 *833:60 2.56352e-05
63 *313:10 *833:60 1.34578e-05
64 *366:14 *833:18 8.4215e-05
65 *366:14 *833:28 0.000113616
66 *366:14 *833:36 6.59741e-06
67 *476:189 *833:28 2.75914e-05
68 *480:40 *1489:CK 0
69 *480:54 *833:69 2.56379e-05
70 *480:54 *833:86 1.06296e-05
71 *480:62 *833:69 6.39696e-06
72 *480:72 *833:60 2.56379e-05
73 *480:72 *833:69 5.11118e-06
74 *481:12 *1489:CK 3.16366e-05
75 *481:12 *833:86 7.32582e-05
76 *481:21 *833:86 0
77 *689:10 *833:36 0
78 *709:14 *1394:CK 0
79 *713:18 *833:36 0.000106326
80 *717:10 *1386:CK 0
81 *728:10 *833:86 0
82 *729:14 *833:69 0
83 *734:12 *833:86 3.85541e-05
84 *826:169 *833:36 5.41857e-05
85 *828:262 *1394:CK 0
*RES
1 *1646:Z *833:8 11.5357 
2 *833:8 *833:18 34.75 
3 *833:18 *833:28 27.6071 
4 *833:28 *833:36 32.1786 
5 *833:36 *833:40 33.0714 
6 *833:40 *1484:CK 8.75 
7 *833:40 *833:51 2.17857 
8 *833:51 *1490:CK 5.92857 
9 *833:51 *833:60 15.75 
10 *833:60 *1486:CK 5 
11 *833:60 *833:69 22.5357 
12 *833:69 *1485:CK 5 
13 *833:69 *833:86 35.0714 
14 *833:86 *1491:CK 5 
15 *833:86 *1489:CK 12.7143 
16 *833:36 *833:104 8.75 
17 *833:104 *1386:CK 26.4286 
18 *833:104 *1382:CK 5 
19 *833:28 *1406:CK 5 
20 *833:18 *1381:CK 5 
21 *833:8 *1662:A 5 
22 *1646:Z *1394:CK 14.6786 
*END

*D_NET *834 0.00577572
*CONN
*I *1384:CK I *D DFF_X1
*I *1407:CK I *D DFF_X1
*I *1409:CK I *D DFF_X1
*I *1383:CK I *D DFF_X1
*I *1385:CK I *D DFF_X1
*I *1387:CK I *D DFF_X1
*I *1411:CK I *D DFF_X1
*I *1404:CK I *D DFF_X1
*I *1410:CK I *D DFF_X1
*I *1380:CK I *D DFF_X1
*I *1408:CK I *D DFF_X1
*I *1663:A I *D INV_X1
*I *1405:CK I *D DFF_X1
*I *1647:Z O *D BUF_X4
*CAP
1 *1384:CK 0
2 *1407:CK 5.83978e-05
3 *1409:CK 9.42182e-05
4 *1383:CK 8.22896e-05
5 *1385:CK 0
6 *1387:CK 0
7 *1411:CK 0.000161915
8 *1404:CK 0
9 *1410:CK 0.000100431
10 *1380:CK 0.000169023
11 *1408:CK 0
12 *1663:A 7.21358e-05
13 *1405:CK 0.000145654
14 *1647:Z 6.07122e-06
15 *834:160 0.000312749
16 *834:143 0.00043505
17 *834:130 0.000316784
18 *834:110 0.000201786
19 *834:108 0.000287817
20 *834:73 0.000484357
21 *834:65 0.000312701
22 *834:59 0.000344688
23 *834:46 0.000172426
24 *834:40 0.000352544
25 *834:10 0.000269359
26 *834:8 0.000360858
27 *913:A *834:143 7.19036e-06
28 *915:A *834:40 3.09411e-06
29 *917:A *1383:CK 2.96955e-05
30 *917:A *834:160 6.84316e-05
31 *930:A *1407:CK 9.30692e-06
32 *1036:A *1411:CK 0
33 *1060:B *1405:CK 1.33537e-05
34 *1094:B2 *834:40 5.4899e-05
35 *1109:A1 *834:160 0
36 *1158:A1 *834:73 0
37 *1158:B2 *1380:CK 2.00032e-05
38 *1158:B2 *834:73 0
39 *1292:B1 *834:40 1.70588e-05
40 *1293:B1 *1409:CK 0
41 *1293:B2 *1409:CK 1.34605e-05
42 *1293:B2 *834:160 0
43 *1296:B1 *834:65 6.06867e-06
44 *1296:B2 *834:65 2.05177e-06
45 *1296:B2 *834:73 0
46 *1319:B2 *834:40 3.96215e-05
47 *1319:B2 *834:46 1.07797e-05
48 *1319:B2 *834:59 7.66905e-06
49 *1320:B1 *1383:CK 0
50 *1320:B1 *834:143 0
51 *1320:B2 *1383:CK 1.88334e-06
52 *1322:B2 *1405:CK 5.01029e-05
53 *1380:D *1380:CK 1.16279e-05
54 *1383:D *1383:CK 0
55 *1385:D *834:130 7.16188e-07
56 *1385:D *834:143 6.3924e-06
57 *1387:D *834:110 6.38328e-07
58 *1404:D *834:59 0
59 *1404:D *834:73 0
60 *1407:D *1407:CK 0
61 *1407:D *1409:CK 0
62 *1408:D *834:40 2.7221e-05
63 *1409:D *1409:CK 0
64 *399:12 *834:40 7.02617e-06
65 *399:18 *834:40 0
66 *439:12 *1405:CK 0
67 *439:12 *1663:A 0
68 *459:18 *834:59 9.23721e-05
69 *505:20 *834:40 3.03843e-05
70 *505:70 *1411:CK 0
71 *505:70 *834:59 9.0475e-06
72 *505:70 *834:108 1.81694e-05
73 *511:10 *834:40 0
74 *511:10 *834:46 9.62051e-07
75 *511:72 *834:65 1.75631e-05
76 *511:104 *834:130 0
77 *511:104 *834:143 0
78 *515:12 *1383:CK 0
79 *515:12 *834:110 0
80 *515:12 *834:130 0
81 *515:12 *834:143 2.65134e-05
82 *690:8 *834:160 0
83 *691:10 *834:46 0
84 *693:10 *1380:CK 0
85 *694:12 *1411:CK 6.50827e-06
86 *711:10 *1380:CK 0
87 *825:117 *1410:CK 1.26815e-05
88 *826:155 *1411:CK 0
89 *826:155 *834:108 0.000329958
90 *828:243 *1663:A 3.96218e-05
91 *828:247 *1663:A 7.70413e-06
92 *828:262 *1405:CK 3.16848e-05
93 *828:262 *834:10 3.0033e-06
*RES
1 *1647:Z *834:8 10.75 
2 *834:8 *834:10 5 
3 *834:10 *1405:CK 27.1429 
4 *834:10 *1663:A 18.8571 
5 *834:8 *834:40 41.2143 
6 *834:40 *834:46 5.92857 
7 *834:46 *1408:CK 5 
8 *834:46 *834:59 19.0357 
9 *834:59 *834:65 15.8571 
10 *834:65 *834:73 30.4286 
11 *834:73 *1380:CK 32.5357 
12 *834:73 *1410:CK 26.7857 
13 *834:65 *1404:CK 5 
14 *834:59 *834:108 24.9286 
15 *834:108 *834:110 3.75 
16 *834:110 *1411:CK 31.5357 
17 *834:110 *1387:CK 5 
18 *834:108 *834:130 12.1786 
19 *834:130 *1385:CK 5 
20 *834:130 *834:143 25.9286 
21 *834:143 *1383:CK 18.7857 
22 *834:143 *834:160 22.2143 
23 *834:160 *1409:CK 14.75 
24 *834:160 *1407:CK 11.25 
25 *834:40 *1384:CK 5 
*END

*D_NET *836 0.00510977
*CONN
*I *1388:CK I *D DFF_X1
*I *1392:CK I *D DFF_X1
*I *1400:CK I *D DFF_X1
*I *1395:CK I *D DFF_X1
*I *1391:CK I *D DFF_X1
*I *1393:CK I *D DFF_X1
*I *1403:CK I *D DFF_X1
*I *1401:CK I *D DFF_X1
*I *1399:CK I *D DFF_X1
*I *1396:CK I *D DFF_X1
*I *1665:A I *D INV_X2
*I *1649:Z O *D BUF_X4
*CAP
1 *1388:CK 0.000160713
2 *1392:CK 6.42401e-05
3 *1400:CK 0
4 *1395:CK 0.000118915
5 *1391:CK 0.000101142
6 *1393:CK 0
7 *1403:CK 9.33491e-05
8 *1401:CK 0
9 *1399:CK 0.000259305
10 *1396:CK 4.07617e-05
11 *1665:A 2.20726e-05
12 *1649:Z 4.05022e-05
13 *836:122 0.00026203
14 *836:89 0.000209841
15 *836:81 0.000377693
16 *836:66 0.000262829
17 *836:46 0.000360535
18 *836:42 0.000268547
19 *836:38 0.000381763
20 *836:34 0.000242736
21 *836:19 0.000204249
22 *836:8 0.000180094
23 *912:A *836:89 0
24 *927:A *836:46 0
25 *931:A *1399:CK 0
26 *937:A *1388:CK 5.00003e-06
27 *1080:A *1403:CK 2.17286e-05
28 *1080:B2 *1403:CK 2.39679e-06
29 *1080:B2 *836:46 0
30 *1080:C1 *836:81 5.87528e-06
31 *1095:A *836:42 2.96955e-05
32 *1095:A *836:122 3.19164e-06
33 *1095:B2 *836:122 0
34 *1095:C1 *836:122 6.33352e-05
35 *1110:B2 *1399:CK 2.97625e-05
36 *1159:B2 *1388:CK 0
37 *1300:A1 *836:46 2.52965e-06
38 *1301:A1 *836:122 2.52965e-06
39 *1302:B2 *1399:CK 0
40 *1310:B1 *836:122 5.98684e-05
41 *1311:B1 *1391:CK 0
42 *1314:B2 *1388:CK 1.93619e-05
43 *1341:A2 *1395:CK 0
44 *1341:A2 *836:81 5.62244e-05
45 *1341:A2 *836:89 0
46 *1388:D *1388:CK 2.39679e-06
47 *1391:D *1391:CK 6.38328e-07
48 *1392:D *1392:CK 4.88546e-05
49 *1392:D *836:122 9.79905e-05
50 *1393:D *836:89 7.34989e-06
51 *1395:D *1395:CK 6.38328e-07
52 *1396:D *1388:CK 0
53 *1396:D *1396:CK 1.92715e-05
54 *1399:D *1399:CK 2.74709e-05
55 *1400:D *836:122 7.34533e-06
56 *1401:D *836:46 9.06043e-06
57 *1403:D *1403:CK 0
58 *219:8 *1395:CK 7.11905e-07
59 *219:8 *836:81 3.26032e-06
60 *221:12 *836:122 2.84765e-06
61 *386:8 *1665:A 0
62 *386:8 *836:19 0
63 *386:8 *836:42 0.000468223
64 *386:8 *836:66 5.14369e-05
65 *386:8 *836:81 4.21702e-05
66 *399:18 *1388:CK 8.61538e-05
67 *399:18 *836:38 1.45281e-05
68 *399:18 *836:122 2.52965e-06
69 *414:8 *1392:CK 6.76399e-05
70 *460:12 *1388:CK 6.82202e-07
71 *460:16 *836:8 7.34533e-06
72 *473:116 *836:42 0
73 *473:116 *836:66 0
74 *473:116 *836:81 0
75 *474:154 *836:122 6.38328e-07
76 *474:170 *836:122 0
77 *476:273 *1665:A 0
78 *509:18 *1388:CK 2.66684e-05
79 *509:18 *1396:CK 6.07779e-06
80 *509:18 *836:38 5.34723e-05
81 *509:18 *836:122 8.90111e-05
82 *509:35 *1399:CK 1.25431e-05
83 *509:37 *836:89 0
84 *516:12 *836:46 0
85 *695:18 *836:19 0
86 *695:18 *836:34 0
87 *825:82 *1399:CK 0
88 *825:82 *1403:CK 0
*RES
1 *1649:Z *836:8 14.25 
2 *836:8 *1665:A 12.2857 
3 *836:8 *836:19 11.7857 
4 *836:19 *1396:CK 14.75 
5 *836:19 *836:34 4.64286 
6 *836:34 *836:38 10.25 
7 *836:38 *836:42 29.6786 
8 *836:42 *836:46 15.25 
9 *836:46 *1399:CK 43.7143 
10 *836:46 *1401:CK 5 
11 *836:42 *836:66 2.96429 
12 *836:66 *1403:CK 20.25 
13 *836:66 *836:81 17.5357 
14 *836:81 *836:89 15.9286 
15 *836:89 *1393:CK 5 
16 *836:89 *1391:CK 15.25 
17 *836:81 *1395:CK 21.6786 
18 *836:38 *836:122 37.6072 
19 *836:122 *1400:CK 5 
20 *836:122 *1392:CK 23.3929 
21 *836:34 *1388:CK 30.6786 
*END

*D_NET *837 0.00372652
*CONN
*I *1666:A I *D BUF_X4
*I *1475:CK I *D DFF_X1
*I *1451:CK I *D DFF_X1
*I *1444:CK I *D DFF_X1
*I *1469:CK I *D DFF_X1
*I *1445:CK I *D DFF_X1
*I *1471:CK I *D DFF_X1
*I *1447:CK I *D DFF_X1
*I *1521:CK I *D DFF_X1
*I *1520:CK I *D DFF_X1
*I *1650:Z O *D BUF_X4
*CAP
1 *1666:A 5.32849e-05
2 *1475:CK 7.0716e-05
3 *1451:CK 8.71307e-06
4 *1444:CK 0
5 *1469:CK 0
6 *1445:CK 3.40363e-05
7 *1471:CK 1.50002e-05
8 *1447:CK 0
9 *1521:CK 0
10 *1520:CK 0.000105697
11 *1650:Z 0
12 *837:85 0.000216813
13 *837:30 0.000336112
14 *837:24 0.000266036
15 *837:20 0.000156712
16 *837:18 0.000148276
17 *837:16 0.000342323
18 *837:12 0.00034941
19 *837:10 0.000497052
20 *837:4 0.000397716
21 *977:A *837:16 0
22 *977:A *837:20 8.26038e-06
23 *1044:A *1475:CK 7.72792e-06
24 *1078:C1 *837:10 0
25 *1078:C2 *837:10 3.51992e-06
26 *1139:B2 *837:16 0
27 *1219:B1 *1471:CK 6.56185e-06
28 *1219:B1 *837:20 1.16502e-05
29 *1219:B1 *837:24 1.77907e-05
30 *1219:B1 *837:30 7.69103e-05
31 *1221:B2 *837:20 1.32732e-05
32 *1222:B2 *837:10 0
33 *1222:B2 *837:12 0
34 *1222:B2 *837:16 0
35 *1226:B1 *1666:A 0
36 *1226:B1 *837:10 9.90776e-06
37 *1246:B1 *837:30 6.41528e-06
38 *1246:B2 *837:30 8.09132e-05
39 *1248:B2 *1445:CK 4.44925e-05
40 *1248:B2 *837:18 1.76665e-06
41 *1248:B2 *837:20 1.88906e-05
42 *1351:A1 *1475:CK 1.88398e-05
43 *1351:A1 *837:85 1.11753e-05
44 *1351:A2 *1451:CK 0
45 *1351:A2 *837:85 3.30346e-05
46 *1447:D *837:30 2.88159e-06
47 *1471:D *837:24 5.06354e-05
48 *1471:D *837:30 4.13466e-05
49 *1475:D *1451:CK 0
50 *1475:D *1475:CK 7.98608e-05
51 *1475:D *837:85 9.3409e-06
52 *1517:A2 *1520:CK 0
53 *1517:A2 *837:30 2.56379e-05
54 *1517:A3 *1520:CK 0
55 *1520:D *1520:CK 6.38328e-07
56 *1521:D *837:30 1.39104e-05
57 *1650:A *837:10 4.51722e-06
58 *365:46 *837:85 0
59 *383:10 *837:10 0
60 *383:10 *837:16 0
61 *411:6 *837:30 0
62 *441:10 *837:16 0
63 *473:207 *837:10 0
64 *473:207 *837:12 0
65 *473:207 *837:16 0
66 *487:57 *837:20 5.7295e-06
67 *487:121 *837:16 0
68 *493:68 *1445:CK 2.01083e-05
69 *493:68 *837:20 6.93205e-05
70 *828:75 *837:10 1.07183e-06
71 *828:89 *1666:A 1.58933e-05
72 *828:89 *837:10 1.65965e-05
*RES
1 *1650:Z *837:4 5 
2 *837:4 *837:10 42.2857 
3 *837:10 *837:12 1.60714 
4 *837:12 *837:16 39.1786 
5 *837:16 *837:18 0.928572 
6 *837:18 *837:20 15.75 
7 *837:20 *837:24 5.67857 
8 *837:24 *837:30 29.6429 
9 *837:30 *1520:CK 25.4286 
10 *837:30 *1521:CK 5 
11 *837:24 *1447:CK 5 
12 *837:20 *1471:CK 7.28572 
13 *837:18 *1445:CK 10.6786 
14 *837:16 *1469:CK 5 
15 *837:12 *1444:CK 10 
16 *837:10 *837:85 20.75 
17 *837:85 *1451:CK 5.92857 
18 *837:85 *1475:CK 15.25 
19 *837:4 *1666:A 11.0357 
*END

*D_NET *33 0.000171219
*CONN
*I *906:D I *D DFF_X1
*I *885:ZN O *D AOI21_X1
*CAP
1 *906:D 7.16908e-05
2 *885:ZN 7.16908e-05
3 *906:D *885:B2 6.50581e-06
4 *906:D *829:45 2.38139e-06
5 *906:D *829:47 4.79658e-06
6 *4:5 *906:D 1.41532e-05
*RES
1 *885:ZN *906:D 28.25 
*END

*D_NET *34 0.000251132
*CONN
*I *905:D I *D DFF_X1
*I *890:ZN O *D AOI21_X1
*CAP
1 *905:D 8.45921e-05
2 *890:ZN 8.45921e-05
3 *905:D *864:A1 4.32144e-07
4 *905:D *864:A2 1.92975e-05
5 *905:D *886:A2 4.95679e-05
6 *905:D *887:B 2.98439e-06
7 *905:D *890:B1 8.64288e-07
8 *905:D *890:B2 1.60038e-06
9 *905:D *48:28 4.12911e-06
10 *905:D *846:56 2.23871e-06
11 *905:D *848:37 8.33759e-07
*RES
1 *890:ZN *905:D 30.7143 
*END

*D_NET *35 0.000152644
*CONN
*I *904:D I *D DFF_X1
*I *895:ZN O *D AOI21_X1
*CAP
1 *904:D 4.85404e-05
2 *895:ZN 4.85404e-05
3 *904:D *893:A3 0
4 *904:D *904:CK 6.38328e-07
5 *904:D *1672:A 1.18547e-06
6 *904:D *61:12 5.37391e-05
*RES
1 *895:ZN *904:D 16.3571 
*END

*D_NET *36 0.000125138
*CONN
*I *903:D I *D DFF_X1
*I *897:ZN O *D NOR2_X1
*CAP
1 *903:D 4.99092e-05
2 *897:ZN 4.99092e-05
3 *903:D *897:A2 2.25658e-05
4 *903:D *829:47 2.75346e-06
*RES
1 *897:ZN *903:D 15.5357 
*END

*D_NET *37 0.000332235
*CONN
*I *907:D I *D DFF_X1
*I *902:ZN O *D AOI21_X1
*CAP
1 *907:D 0.000164763
2 *902:ZN 0.000164763
3 *907:D *872:A 0
4 *907:D *902:B2 2.70833e-06
5 *863:A *907:D 0
6 *898:A1 *907:D 0
*RES
1 *902:ZN *907:D 26.6071 
*END

*D_NET *38 0.000132899
*CONN
*I *872:A I *D AOI21_X4
*I *863:ZN O *D INV_X1
*CAP
1 *872:A 5.56338e-05
2 *863:ZN 5.56338e-05
3 *863:A *872:A 3.51992e-06
4 *898:A1 *872:A 1.81116e-05
5 *907:D *872:A 0
6 *6:9 *872:A 0
*RES
1 *863:ZN *872:A 26.0357 
*END

*D_NET *39 0.000234431
*CONN
*I *887:B I *D XOR2_X1
*I *864:ZN O *D NOR2_X1
*CAP
1 *887:B 7.44307e-05
2 *864:ZN 7.44307e-05
3 *887:B *889:A2 4.51285e-05
4 *887:B *889:B1 2.11815e-06
5 *887:B *889:B2 2.43548e-06
6 *887:B *890:B2 4.50578e-06
7 *887:B *48:28 2.80734e-05
8 *887:B *846:56 3.23723e-07
9 *905:D *887:B 2.98439e-06
*RES
1 *864:ZN *887:B 19.6071 
*END

*D_NET *40 0.000104666
*CONN
*I *879:B I *D XOR2_X1
*I *865:ZN O *D NOR3_X1
*CAP
1 *879:B 3.71889e-05
2 *865:ZN 3.71889e-05
3 *879:B *879:A 0
4 *879:B *881:A3 1.51442e-05
5 *879:B *845:41 1.51442e-05
*RES
1 *865:ZN *879:B 14.6786 
*END

*D_NET *44 0.00156794
*CONN
*I *889:A1 I *D AOI22_X1
*I *884:A1 I *D AOI22_X1
*I *873:ZN O *D NOR2_X1
*CAP
1 *889:A1 0.000130469
2 *884:A1 4.03143e-05
3 *873:ZN 0.000241763
4 *44:12 0.000412547
5 *884:A1 *880:A2 1.2453e-05
6 *884:A1 *883:A 0
7 *884:A1 *884:B2 1.88334e-06
8 *884:A1 *889:B2 1.94337e-05
9 *884:A1 *845:45 4.24402e-05
10 *884:A1 *846:48 4.32319e-05
11 *884:A1 *848:56 1.80131e-05
12 *889:A1 *880:A2 2.94455e-05
13 *889:A1 *889:B1 3.09143e-06
14 *889:A1 *889:B2 2.18282e-05
15 *889:A1 *846:48 6.5382e-05
16 *44:12 *865:A1 4.32144e-07
17 *44:12 *879:A 1.89333e-05
18 *44:12 *893:A3 0
19 *44:12 *894:B1 1.37673e-05
20 *44:12 *895:B2 2.55363e-05
21 *44:12 *47:16 0
22 *44:12 *48:18 4.78341e-05
23 *44:12 *48:28 0.000273952
24 *44:12 *61:12 3.19164e-06
25 *44:12 *845:12 4.69702e-07
26 *44:12 *845:41 0.000101533
27 *4:9 *889:A1 0
*RES
1 *873:ZN *44:12 46.4286 
2 *44:12 *884:A1 16.3571 
3 *44:12 *889:A1 25.25 
*END

*D_NET *45 0.000462704
*CONN
*I *877:B I *D MUX2_X1
*I *874:ZN O *D AND2_X1
*CAP
1 *877:B 0.000170004
2 *874:ZN 0.000170004
3 *877:B *901:A1 0
4 *877:B *901:A2 3.19164e-07
5 *877:B *47:8 9.78065e-05
6 *877:B *48:10 9.6515e-06
7 *877:B *48:18 0
8 *7:5 *877:B 1.49198e-05
*RES
1 *874:ZN *877:B 40.1429 
*END

*D_NET *46 0.000245073
*CONN
*I *876:A2 I *D AND2_X1
*I *898:A2 I *D NOR2_X1
*I *875:ZN O *D NAND2_X1
*CAP
1 *876:A2 4.14746e-05
2 *898:A2 2.98368e-05
3 *875:ZN 3.21294e-05
4 *46:8 0.000103441
5 *876:A2 *901:A2 1.07633e-05
6 *46:8 *901:A2 6.07779e-06
7 *898:A1 *46:8 1.45225e-05
8 *7:5 *876:A2 3.92597e-06
9 *7:5 *898:A2 2.90163e-06
*RES
1 *875:ZN *46:8 13.75 
2 *46:8 *898:A2 12.9643 
3 *46:8 *876:A2 14.3214 
*END

*D_NET *47 0.00198511
*CONN
*I *901:A1 I *D NAND2_X1
*I *894:B2 I *D AOI21_X1
*I *889:B2 I *D AOI22_X1
*I *884:B2 I *D AOI22_X1
*I *876:ZN O *D AND2_X1
*CAP
1 *901:A1 4.26576e-05
2 *894:B2 5.63625e-05
3 *889:B2 0.000166891
4 *884:B2 3.05513e-05
5 *876:ZN 0.000214109
6 *47:16 0.000455893
7 *47:8 0.000486264
8 *884:B2 *883:A 2.39679e-06
9 *884:B2 *884:B1 2.75346e-06
10 *884:B2 *885:B2 1.87369e-06
11 *884:B2 *849:6 7.72792e-06
12 *889:B2 *880:A1 0
13 *889:B2 *880:A2 4.16485e-05
14 *889:B2 *884:A2 0
15 *889:B2 *889:A2 4.4596e-05
16 *889:B2 *889:B1 2.39679e-06
17 *889:B2 *48:28 1.58857e-05
18 *889:B2 *845:45 4.18985e-05
19 *889:B2 *846:33 1.87369e-06
20 *889:B2 *846:48 4.78054e-06
21 *901:A1 *901:A2 7.03073e-06
22 *901:A1 *902:B2 3.88456e-06
23 *47:8 *900:B 0
24 *47:8 *901:A2 4.32759e-06
25 *47:8 *48:18 0
26 *47:16 *879:A 0
27 *47:16 *881:A3 5.56073e-05
28 *47:16 *883:B 2.90685e-06
29 *47:16 *884:A2 3.90891e-05
30 *47:16 *885:B2 5.4364e-05
31 *47:16 *900:B 0
32 *47:16 *48:18 0
33 *47:16 *846:12 6.44217e-06
34 *47:16 *846:18 4.75106e-05
35 *47:16 *847:18 0
36 *877:B *901:A1 0
37 *877:B *47:8 9.78065e-05
38 *884:A1 *884:B2 1.88334e-06
39 *884:A1 *889:B2 1.94337e-05
40 *887:B *889:B2 2.43548e-06
41 *889:A1 *889:B2 2.18282e-05
42 *4:9 *884:B2 0
43 *4:9 *889:B2 0
44 *44:12 *47:16 0
*RES
1 *876:ZN *47:8 24.6786 
2 *47:8 *47:16 35.9286 
3 *47:16 *884:B2 13.0357 
4 *47:16 *889:B2 30.3214 
5 *47:8 *894:B2 20.6786 
6 *876:ZN *901:A1 14.6786 
*END

*D_NET *48 0.0032446
*CONN
*I *899:B1 I *D OAI21_X1
*I *891:A2 I *D NAND2_X1
*I *886:A2 I *D NAND2_X1
*I *878:A2 I *D NAND2_X1
*I *896:B I *D XOR2_X1
*I *877:Z O *D MUX2_X1
*CAP
1 *899:B1 9.80808e-05
2 *891:A2 0
3 *886:A2 6.62623e-05
4 *878:A2 0.000130146
5 *896:B 0
6 *877:Z 0.000145864
7 *48:42 0.000235823
8 *48:36 0.000238304
9 *48:28 0.000357687
10 *48:18 0.000448546
11 *48:10 0.000401169
12 *878:A2 *829:47 3.51846e-05
13 *878:A2 *847:18 0
14 *886:A2 *890:B1 3.88207e-05
15 *886:A2 *1675:A 7.12794e-06
16 *48:18 *893:A3 0
17 *48:28 *864:A2 3.34324e-06
18 *48:28 *888:B 1.30097e-06
19 *48:28 *889:A2 4.45767e-06
20 *48:28 *889:B1 5.59765e-05
21 *48:28 *890:B2 1.79544e-06
22 *48:28 *845:14 3.2849e-05
23 *48:28 *845:18 1.56456e-05
24 *48:28 *845:24 9.45859e-06
25 *48:28 *846:33 1.53381e-05
26 *48:28 *846:56 5.00286e-06
27 *48:28 *848:37 6.11168e-05
28 *48:28 *848:56 3.37909e-05
29 *48:36 *864:A1 5.71213e-05
30 *48:36 *890:B2 3.81591e-05
31 *48:36 *905:CK 0
32 *48:42 *864:A1 3.76527e-05
33 *48:42 *896:A 0.000235898
34 *48:42 *905:CK 0
35 *48:42 *829:47 3.58094e-06
36 *877:B *48:10 9.6515e-06
37 *877:B *48:18 0
38 *887:B *48:28 2.80734e-05
39 *889:B2 *48:28 1.58857e-05
40 *905:D *886:A2 4.95679e-05
41 *905:D *48:28 4.12911e-06
42 *44:12 *48:18 4.78341e-05
43 *44:12 *48:28 0.000273952
44 *47:8 *48:18 0
45 *47:16 *48:18 0
*RES
1 *877:Z *48:10 19.9286 
2 *48:10 *48:18 26.3571 
3 *48:18 *48:28 48.4286 
4 *48:28 *48:36 18.5714 
5 *48:36 *48:42 20.75 
6 *48:42 *896:B 5 
7 *48:42 *878:A2 19.75 
8 *48:36 *886:A2 19.25 
9 *48:18 *891:A2 5 
10 *48:10 *899:B1 24.75 
*END

*D_NET *49 0.000117441
*CONN
*I *885:B1 I *D AOI21_X1
*I *878:ZN O *D NAND2_X1
*CAP
1 *885:B1 5.3474e-05
2 *878:ZN 5.3474e-05
3 *885:B1 *829:47 1.04928e-05
4 *885:B1 *847:18 0
*RES
1 *878:ZN *885:B1 15.6786 
*END

*D_NET *50 0.000277028
*CONN
*I *884:A2 I *D AOI22_X1
*I *879:Z O *D XOR2_X1
*CAP
1 *884:A2 5.67293e-05
2 *879:Z 5.67293e-05
3 *884:A2 *883:B 4.38826e-05
4 *884:A2 *885:B2 2.24822e-06
5 *889:B2 *884:A2 0
6 *4:9 *884:A2 7.83491e-05
7 *47:16 *884:A2 3.90891e-05
*RES
1 *879:Z *884:A2 28.5714 
*END

*D_NET *51 0.000389092
*CONN
*I *888:B I *D XNOR2_X1
*I *880:ZN O *D NAND2_X1
*CAP
1 *888:B 6.96493e-05
2 *880:ZN 6.96493e-05
3 *888:B *846:48 7.9845e-05
4 *888:B *846:56 7.85365e-05
5 *888:B *848:37 4.2375e-05
6 *888:B *848:56 4.77363e-05
7 *48:28 *888:B 1.30097e-06
*RES
1 *880:ZN *888:B 31.8214 
*END

*D_NET *52 0.000423278
*CONN
*I *883:B I *D XNOR2_X1
*I *881:ZN O *D NAND3_X1
*CAP
1 *883:B 0.000133575
2 *881:ZN 0.000133575
3 *883:B *864:A2 1.07733e-05
4 *883:B *879:A 4.79202e-06
5 *883:B *881:A2 1.19714e-05
6 *883:B *881:A3 5.88266e-05
7 *883:B *884:B1 1.42309e-05
8 *883:B *885:B2 2.86475e-06
9 *883:B *829:45 5.36441e-07
10 *883:B *845:41 0
11 *883:B *848:56 5.34233e-06
12 *884:A2 *883:B 4.38826e-05
13 *4:9 *883:B 0
14 *47:16 *883:B 2.90685e-06
*RES
1 *881:ZN *883:B 37.4643 
*END

*D_NET *53 0.000405817
*CONN
*I *900:B I *D XNOR2_X1
*I *882:ZN O *D NAND4_X1
*CAP
1 *900:B 0.000191581
2 *882:ZN 0.000191581
3 *900:B *882:A2 0
4 *900:B *899:B2 0
5 *900:B *1673:A 7.02617e-06
6 *900:B *846:12 1.56295e-05
7 *47:8 *900:B 0
8 *47:16 *900:B 0
*RES
1 *882:ZN *900:B 29.9286 
*END

*D_NET *54 0.000205869
*CONN
*I *884:B1 I *D AOI22_X1
*I *883:ZN O *D XNOR2_X1
*CAP
1 *884:B1 7.55143e-05
2 *883:ZN 7.55143e-05
3 *884:B1 *864:A2 0
4 *884:B1 *883:A 1.69265e-05
5 *884:B1 *885:B2 1.37673e-05
6 *884:B1 *847:18 7.16188e-06
7 *883:B *884:B1 1.42309e-05
8 *884:B2 *884:B1 2.75346e-06
*RES
1 *883:ZN *884:B1 19.7143 
*END

*D_NET *55 0.000381295
*CONN
*I *885:B2 I *D AOI21_X1
*I *884:ZN O *D AOI22_X1
*CAP
1 *885:B2 9.76284e-05
2 *884:ZN 9.76284e-05
3 *885:B2 *829:45 0
4 *885:B2 *847:18 1.45455e-05
5 *885:B2 *849:6 6.47615e-06
6 *883:B *885:B2 2.86475e-06
7 *884:A2 *885:B2 2.24822e-06
8 *884:B1 *885:B2 1.37673e-05
9 *884:B2 *885:B2 1.87369e-06
10 *906:D *885:B2 6.50581e-06
11 *4:5 *885:B2 3.64845e-05
12 *4:9 *885:B2 4.69086e-05
13 *47:16 *885:B2 5.4364e-05
*RES
1 *884:ZN *885:B2 35.1429 
*END

*D_NET *56 0.000294626
*CONN
*I *890:B1 I *D AOI21_X1
*I *886:ZN O *D NAND2_X1
*CAP
1 *890:B1 0.000114381
2 *886:ZN 0.000114381
3 *890:B1 *1675:A 0
4 *890:B1 *846:56 7.19036e-06
5 *890:B1 *848:24 1.89887e-05
6 *886:A2 *890:B1 3.88207e-05
7 *905:D *890:B1 8.64288e-07
*RES
1 *886:ZN *890:B1 23.5357 
*END

*D_NET *57 0.000218448
*CONN
*I *889:A2 I *D AOI22_X1
*I *887:Z O *D XOR2_X1
*CAP
1 *889:A2 5.64158e-05
2 *887:Z 5.64158e-05
3 *889:A2 *889:B1 1.14339e-05
4 *887:B *889:A2 4.51285e-05
5 *889:B2 *889:A2 4.4596e-05
6 *48:28 *889:A2 4.45767e-06
*RES
1 *887:Z *889:A2 27.8929 
*END

*D_NET *58 0.000129479
*CONN
*I *889:B1 I *D AOI22_X1
*I *888:ZN O *D XNOR2_X1
*CAP
1 *889:B1 2.72313e-05
2 *888:ZN 2.72313e-05
3 *887:B *889:B1 2.11815e-06
4 *889:A1 *889:B1 3.09143e-06
5 *889:A2 *889:B1 1.14339e-05
6 *889:B2 *889:B1 2.39679e-06
7 *48:28 *889:B1 5.59765e-05
*RES
1 *888:ZN *889:B1 24.2143 
*END

*D_NET *59 0.000350443
*CONN
*I *890:B2 I *D AOI21_X1
*I *889:ZN O *D AOI22_X1
*CAP
1 *890:B2 5.56924e-05
2 *889:ZN 5.56924e-05
3 *890:B2 *864:A1 9.54843e-05
4 *890:B2 *864:A2 8.02729e-05
5 *890:B2 *896:A 1.72405e-05
6 *887:B *890:B2 4.50578e-06
7 *905:D *890:B2 1.60038e-06
8 *48:28 *890:B2 1.79544e-06
9 *48:36 *890:B2 3.81591e-05
*RES
1 *889:ZN *890:B2 29.6071 
*END

*D_NET *60 0.000129529
*CONN
*I *895:B1 I *D AOI21_X1
*I *891:ZN O *D NAND2_X1
*CAP
1 *895:B1 4.77433e-05
2 *891:ZN 4.77433e-05
3 *895:B1 *895:B2 3.02997e-05
4 *895:B1 *1672:A 3.09411e-06
5 *895:B1 *61:12 6.48216e-07
6 *895:B1 *845:12 0
*RES
1 *891:ZN *895:B1 25.0714 
*END

*D_NET *61 0.000602332
*CONN
*I *893:A3 I *D NOR3_X1
*I *894:B1 I *D AOI21_X1
*I *892:Z O *D XOR2_X1
*CAP
1 *893:A3 5.79263e-05
2 *894:B1 2.37398e-05
3 *892:Z 0.000114164
4 *61:12 0.00019583
5 *893:A3 *894:A 8.62472e-06
6 *61:12 *894:A 0
7 *61:12 *904:CK 0
8 *61:12 *1672:A 2.75723e-05
9 *61:12 *845:12 1.27114e-05
10 *61:12 *845:14 7.80152e-05
11 *61:12 *845:18 1.24016e-05
12 *895:B1 *61:12 6.48216e-07
13 *904:D *893:A3 0
14 *904:D *61:12 5.37391e-05
15 *44:12 *893:A3 0
16 *44:12 *894:B1 1.37673e-05
17 *44:12 *61:12 3.19164e-06
18 *48:18 *893:A3 0
*RES
1 *892:Z *61:12 21.3571 
2 *61:12 *894:B1 8.53572 
3 *61:12 *893:A3 11.3571 
*END

*D_NET *62 0.000205317
*CONN
*I *894:A I *D AOI21_X1
*I *893:ZN O *D NOR3_X1
*CAP
1 *894:A 9.1501e-05
2 *893:ZN 9.1501e-05
3 *894:A *845:12 1.36901e-05
4 *893:A3 *894:A 8.62472e-06
5 *61:12 *894:A 0
*RES
1 *893:ZN *894:A 29.75 
*END

*D_NET *63 0.000179645
*CONN
*I *895:B2 I *D AOI21_X1
*I *894:ZN O *D AOI21_X1
*CAP
1 *895:B2 4.53262e-05
2 *894:ZN 4.53262e-05
3 *895:B2 *845:12 3.31569e-05
4 *895:B1 *895:B2 3.02997e-05
5 *44:12 *895:B2 2.55363e-05
*RES
1 *894:ZN *895:B2 26.7143 
*END

*D_NET *64 0.000292116
*CONN
*I *897:A2 I *D NOR2_X1
*I *896:Z O *D XOR2_X1
*CAP
1 *897:A2 0.000120278
2 *896:Z 0.000120278
3 *897:A2 *905:CK 2.16443e-05
4 *897:A2 *829:47 7.34989e-06
5 *903:D *897:A2 2.25658e-05
*RES
1 *896:Z *897:A2 33.3214 
*END

*D_NET *65 0.000223726
*CONN
*I *899:B2 I *D OAI21_X1
*I *898:ZN O *D NOR2_X1
*CAP
1 *899:B2 0.000111863
2 *898:ZN 0.000111863
3 *899:B2 *901:A2 0
4 *900:B *899:B2 0
*RES
1 *898:ZN *899:B2 31.0357 
*END

*D_NET *66 0.000916072
*CONN
*I *902:B1 I *D AOI21_X1
*I *899:ZN O *D OAI21_X1
*CAP
1 *902:B1 0.000432937
2 *899:ZN 0.000432937
3 *902:B1 *907:CK 4.76488e-05
4 *6:9 *902:B1 2.54949e-06
*RES
1 *899:ZN *902:B1 48.5443 
*END

*D_NET *67 0.000254896
*CONN
*I *901:A2 I *D NAND2_X1
*I *900:ZN O *D XNOR2_X1
*CAP
1 *901:A2 0.000113189
2 *900:ZN 0.000113189
3 *876:A2 *901:A2 1.07633e-05
4 *877:B *901:A2 3.19164e-07
5 *898:A1 *901:A2 0
6 *899:B2 *901:A2 0
7 *901:A1 *901:A2 7.03073e-06
8 *46:8 *901:A2 6.07779e-06
9 *47:8 *901:A2 4.32759e-06
*RES
1 *900:ZN *901:A2 32.0357 
*END

*D_NET *68 0.000497232
*CONN
*I *902:B2 I *D AOI21_X1
*I *901:ZN O *D NAND2_X1
*CAP
1 *902:B2 0.00024532
2 *901:ZN 0.00024532
3 *902:B2 *411:6 0
4 *863:A *902:B2 0
5 *898:A1 *902:B2 0
6 *901:A1 *902:B2 3.88456e-06
7 *907:D *902:B2 2.70833e-06
*RES
1 *901:ZN *902:B2 35.5714 
*END

*D_NET *75 0.000957966
*CONN
*I *1672:A I *D BUF_X1
*I *866:A2 I *D NOR4_X4
*I *867:A2 I *D OR4_X1
*I *904:Q O *D DFF_X1
*CAP
1 *1672:A 0.000142074
2 *866:A2 2.66465e-05
3 *867:A2 3.47685e-05
4 *904:Q 4.59276e-05
5 *75:10 0.000203648
6 *75:8 0.000330234
7 *866:A2 *882:A2 1.2604e-05
8 *866:A2 *76:24 1.53342e-05
9 *866:A2 *846:18 1.04844e-05
10 *867:A2 *1673:A 2.75346e-06
11 *867:A2 *76:24 1.32348e-05
12 *867:A2 *847:18 2.86475e-06
13 *1672:A *904:CK 1.32348e-05
14 *75:10 *882:A2 7.23061e-05
15 *75:10 *76:24 0
16 *895:B1 *1672:A 3.09411e-06
17 *904:D *1672:A 1.18547e-06
18 *61:12 *1672:A 2.75723e-05
*RES
1 *904:Q *75:8 15 
2 *75:8 *75:10 15.8571 
3 *75:10 *867:A2 13.5357 
4 *75:10 *866:A2 13.75 
5 *75:8 *1672:A 24.4643 
*END

*D_NET *76 0.00181563
*CONN
*I *1675:A I *D BUF_X1
*I *866:A3 I *D NOR4_X4
*I *882:A3 I *D NAND4_X1
*I *867:A3 I *D OR4_X1
*I *905:Q O *D DFF_X1
*CAP
1 *1675:A 9.10153e-05
2 *866:A3 0
3 *882:A3 4.48115e-05
4 *867:A3 0
5 *905:Q 6.28284e-05
6 *76:24 0.000131683
7 *76:18 0.000599614
8 *76:8 0.000666586
9 *882:A3 *882:A2 3.18694e-05
10 *882:A3 *1673:A 2.29731e-05
11 *1675:A *848:10 3.90865e-05
12 *76:8 *905:CK 1.6535e-05
13 *76:18 *882:A2 2.30101e-06
14 *76:18 *905:CK 5.31432e-05
15 *76:18 *846:18 0
16 *76:24 *882:A2 1.11033e-05
17 *76:24 *846:18 0
18 *76:24 *847:18 6.38784e-06
19 *866:A2 *76:24 1.53342e-05
20 *867:A2 *76:24 1.32348e-05
21 *886:A2 *1675:A 7.12794e-06
22 *890:B1 *1675:A 0
23 *75:10 *76:24 0
*RES
1 *905:Q *76:8 17.7143 
2 *76:8 *76:18 34.1829 
3 *76:18 *76:24 14.75 
4 *76:24 *867:A3 5 
5 *76:24 *882:A3 11.9286 
6 *76:18 *866:A3 10 
7 *76:8 *1675:A 20.1786 
*END

*D_NET *849 0.000347776
*CONN
*I *878:A1 I *D NAND2_X1
*I *883:A I *D XNOR2_X1
*I *1676:Z O *D BUF_X1
*CAP
1 *878:A1 3.66038e-05
2 *883:A 5.64077e-05
3 *1676:Z 2.34699e-05
4 *849:6 0.000116481
5 *884:A1 *883:A 0
6 *884:B1 *883:A 1.69265e-05
7 *884:B2 *883:A 2.39679e-06
8 *884:B2 *849:6 7.72792e-06
9 *885:B2 *849:6 6.47615e-06
10 *4:9 *878:A1 0
11 *847:18 *883:A 4.45934e-05
12 *847:18 *849:6 3.66923e-05
*RES
1 *1676:Z *849:6 8.75 
2 *849:6 *883:A 22.2143 
3 *849:6 *878:A1 18.6429 
*END

*D_NET *850 0.000304541
*CONN
*I *879:A I *D XOR2_X1
*I *1677:Z O *D BUF_X1
*CAP
1 *879:A 0.000129763
2 *1677:Z 0.000129763
3 *879:B *879:A 0
4 *881:A1 *879:A 2.52965e-06
5 *881:A2 *879:A 4.32144e-07
6 *881:A3 *879:A 0
7 *883:B *879:A 4.79202e-06
8 *44:12 *879:A 1.89333e-05
9 *47:16 *879:A 0
10 *845:41 *879:A 1.83288e-05
*RES
1 *1677:Z *879:A 24.1786 
*END

*D_NET *845 0.00236015
*CONN
*I *891:A1 I *D NAND2_X1
*I *882:A2 I *D NAND4_X1
*I *892:B I *D XOR2_X1
*I *880:A2 I *D NAND2_X1
*I *865:A2 I *D NOR3_X1
*I *864:A2 I *D NOR2_X1
*I *881:A2 I *D NAND3_X1
*I *1672:Z O *D BUF_X1
*CAP
1 *891:A1 0
2 *882:A2 0.000137725
3 *892:B 0
4 *880:A2 9.54737e-06
5 *865:A2 0
6 *864:A2 0.000135932
7 *881:A2 2.8414e-05
8 *1672:Z 5.18852e-05
9 *845:45 0.00014483
10 *845:41 8.21253e-05
11 *845:24 0.000154644
12 *845:18 9.87468e-05
13 *845:14 0.000219226
14 *845:12 9.71897e-05
15 *864:A2 *864:A1 8.43215e-07
16 *864:A2 *865:A1 9.58715e-06
17 *864:A2 *881:A3 2.75346e-06
18 *864:A2 *896:A 4.44127e-06
19 *864:A2 *846:56 0.000110572
20 *864:A2 *847:18 0
21 *864:A2 *848:24 3.90865e-05
22 *864:A2 *848:37 0
23 *864:A2 *848:56 1.25215e-05
24 *881:A2 *879:A 4.32144e-07
25 *881:A2 *881:A1 2.39679e-06
26 *881:A2 *881:A3 3.09143e-06
27 *882:A2 *846:18 5.40327e-05
28 *845:18 *892:A 2.43548e-06
29 *845:24 *892:A 4.21992e-05
30 *845:24 *846:33 1.19839e-05
31 *845:41 *865:A1 8.43215e-07
32 *845:41 *879:A 1.83288e-05
33 *845:41 *881:A3 6.42887e-07
34 *866:A2 *882:A2 1.2604e-05
35 *879:B *845:41 1.51442e-05
36 *882:A3 *882:A2 3.18694e-05
37 *883:B *864:A2 1.07733e-05
38 *883:B *881:A2 1.19714e-05
39 *883:B *845:41 0
40 *884:A1 *880:A2 1.2453e-05
41 *884:A1 *845:45 4.24402e-05
42 *884:B1 *864:A2 0
43 *889:A1 *880:A2 2.94455e-05
44 *889:B2 *880:A2 4.16485e-05
45 *889:B2 *845:45 4.18985e-05
46 *890:B2 *864:A2 8.02729e-05
47 *894:A *845:12 1.36901e-05
48 *895:B1 *845:12 0
49 *895:B2 *845:12 3.31569e-05
50 *900:B *882:A2 0
51 *904:CK *845:18 0
52 *905:D *864:A2 1.92975e-05
53 *4:9 *881:A2 0
54 *4:9 *845:24 0
55 *44:12 *845:12 4.69702e-07
56 *44:12 *845:41 0.000101533
57 *48:28 *864:A2 3.34324e-06
58 *48:28 *845:14 3.2849e-05
59 *48:28 *845:18 1.56456e-05
60 *48:28 *845:24 9.45859e-06
61 *61:12 *845:12 1.27114e-05
62 *61:12 *845:14 7.80152e-05
63 *61:12 *845:18 1.24016e-05
64 *75:10 *882:A2 7.23061e-05
65 *76:18 *882:A2 2.30101e-06
66 *76:24 *882:A2 1.11033e-05
67 *829:45 *881:A2 6.77896e-05
68 *829:45 *845:24 6.70962e-05
*RES
1 *1672:Z *845:12 21.8929 
2 *845:12 *845:14 7.75 
3 *845:14 *845:18 4.67857 
4 *845:18 *845:24 13.8929 
5 *845:24 *881:A2 14.3929 
6 *845:24 *845:41 19.75 
7 *845:41 *845:45 7.28572 
8 *845:45 *864:A2 35 
9 *845:45 *865:A2 5 
10 *845:41 *880:A2 12.2857 
11 *845:18 *892:B 5 
12 *845:14 *882:A2 34.3572 
13 *845:12 *891:A1 5 
*END

*D_NET *846 0.00262033
*CONN
*I *882:A1 I *D NAND4_X1
*I *892:A I *D XOR2_X1
*I *865:A1 I *D NOR3_X1
*I *864:A1 I *D NOR2_X1
*I *896:A I *D XOR2_X1
*I *880:A1 I *D NAND2_X1
*I *881:A1 I *D NAND3_X1
*I *1673:Z O *D BUF_X1
*CAP
1 *882:A1 0
2 *892:A 3.13142e-05
3 *865:A1 1.05342e-05
4 *864:A1 2.53181e-05
5 *896:A 8.21595e-05
6 *880:A1 8.71307e-06
7 *881:A1 7.43448e-06
8 *1673:Z 5.69916e-05
9 *846:56 0.000204828
10 *846:48 0.000143966
11 *846:33 0.000144496
12 *846:31 0.000183286
13 *846:18 0.000209294
14 *846:12 0.000206581
15 *881:A1 *879:A 2.52965e-06
16 *846:12 *1673:A 0
17 *846:18 *847:18 0
18 *846:48 *848:56 4.12796e-06
19 *846:56 *848:24 2.74529e-06
20 *846:56 *848:37 1.56703e-05
21 *864:A2 *864:A1 8.43215e-07
22 *864:A2 *865:A1 9.58715e-06
23 *864:A2 *896:A 4.44127e-06
24 *864:A2 *846:56 0.000110572
25 *866:A2 *846:18 1.04844e-05
26 *881:A2 *881:A1 2.39679e-06
27 *882:A2 *846:18 5.40327e-05
28 *884:A1 *846:48 4.32319e-05
29 *887:B *846:56 3.23723e-07
30 *888:B *846:48 7.9845e-05
31 *888:B *846:56 7.85365e-05
32 *889:A1 *846:48 6.5382e-05
33 *889:B2 *880:A1 0
34 *889:B2 *846:33 1.87369e-06
35 *889:B2 *846:48 4.78054e-06
36 *890:B1 *846:56 7.19036e-06
37 *890:B2 *864:A1 9.54843e-05
38 *890:B2 *896:A 1.72405e-05
39 *900:B *846:12 1.56295e-05
40 *904:CK *892:A 8.62655e-06
41 *905:D *864:A1 4.32144e-07
42 *905:D *846:56 2.23871e-06
43 *905:CK *896:A 0
44 *44:12 *865:A1 4.32144e-07
45 *47:16 *846:12 6.44217e-06
46 *47:16 *846:18 4.75106e-05
47 *48:28 *846:33 1.53381e-05
48 *48:28 *846:56 5.00286e-06
49 *48:36 *864:A1 5.71213e-05
50 *48:42 *864:A1 3.76527e-05
51 *48:42 *896:A 0.000235898
52 *76:18 *846:18 0
53 *76:24 *846:18 0
54 *829:45 *846:18 7.83167e-05
55 *829:45 *846:31 0.000125994
56 *845:18 *892:A 2.43548e-06
57 *845:24 *892:A 4.21992e-05
58 *845:24 *846:33 1.19839e-05
59 *845:41 *865:A1 8.43215e-07
*RES
1 *1673:Z *846:12 21.2143 
2 *846:12 *846:18 24.5714 
3 *846:18 *881:A1 10.75 
4 *846:18 *846:31 12.0357 
5 *846:31 *846:33 10.75 
6 *846:33 *880:A1 5.92857 
7 *846:33 *846:48 16.9286 
8 *846:48 *846:56 20.4286 
9 *846:56 *896:A 23.1429 
10 *846:56 *864:A1 15.75 
11 *846:48 *865:A1 6.25 
12 *846:31 *892:A 9.75 
13 *846:12 *882:A1 5 
*END

*D_NET *847 0.000955487
*CONN
*I *1673:A I *D BUF_X1
*I *867:A1 I *D OR4_X1
*I *1674:Z O *D BUF_X1
*CAP
1 *1673:A 8.77832e-05
2 *867:A1 0
3 *1674:Z 0.000308084
4 *847:18 0.000395867
5 *847:18 *883:A 4.45934e-05
6 *847:18 *849:6 3.66923e-05
7 *864:A2 *847:18 0
8 *867:A2 *1673:A 2.75346e-06
9 *867:A2 *847:18 2.86475e-06
10 *878:A2 *847:18 0
11 *882:A3 *1673:A 2.29731e-05
12 *884:B1 *847:18 7.16188e-06
13 *885:B1 *847:18 0
14 *885:B2 *847:18 1.45455e-05
15 *900:B *1673:A 7.02617e-06
16 *47:16 *847:18 0
17 *76:24 *847:18 6.38784e-06
18 *829:45 *847:18 1.49198e-05
19 *829:47 *847:18 3.83453e-06
20 *846:12 *1673:A 0
21 *846:18 *847:18 0
*RES
1 *1674:Z *847:18 49.6786 
2 *847:18 *867:A1 5 
3 *847:18 *1673:A 15.25 
*END

*D_NET *848 0.00144856
*CONN
*I *886:A1 I *D NAND2_X1
*I *881:A3 I *D NAND3_X1
*I *865:A3 I *D NOR3_X1
*I *887:A I *D XOR2_X1
*I *888:A I *D XNOR2_X1
*I *1675:Z O *D BUF_X1
*CAP
1 *886:A1 0
2 *881:A3 9.92127e-05
3 *865:A3 0
4 *887:A 0
5 *888:A 0
6 *1675:Z 4.66446e-05
7 *848:56 0.000164782
8 *848:37 0.00011044
9 *848:24 0.000253649
10 *848:10 0.000255423
11 *881:A3 *879:A 0
12 *864:A2 *881:A3 2.75346e-06
13 *864:A2 *848:24 3.90865e-05
14 *864:A2 *848:37 0
15 *864:A2 *848:56 1.25215e-05
16 *879:B *881:A3 1.51442e-05
17 *881:A2 *881:A3 3.09143e-06
18 *883:B *881:A3 5.88266e-05
19 *883:B *848:56 5.34233e-06
20 *884:A1 *848:56 1.80131e-05
21 *888:B *848:37 4.2375e-05
22 *888:B *848:56 4.77363e-05
23 *890:B1 *848:24 1.89887e-05
24 *905:D *848:37 8.33759e-07
25 *1675:A *848:10 3.90865e-05
26 *4:9 *881:A3 4.09107e-05
27 *47:16 *881:A3 5.56073e-05
28 *48:28 *848:37 6.11168e-05
29 *48:28 *848:56 3.37909e-05
30 *829:45 *881:A3 0
31 *845:41 *881:A3 6.42887e-07
32 *846:48 *848:56 4.12796e-06
33 *846:56 *848:24 2.74529e-06
34 *846:56 *848:37 1.56703e-05
*RES
1 *1675:Z *848:10 15.3571 
2 *848:10 *848:24 32.0357 
3 *848:24 *888:A 10 
4 *848:24 *848:37 12.3571 
5 *848:37 *887:A 5 
6 *848:37 *848:56 18.9643 
7 *848:56 *865:A3 5 
8 *848:56 *881:A3 28.7143 
9 *848:10 *886:A1 10 
*END

*D_NET *4 0.00199665
*CONN
*P data_in[2] I
*I *1032:A I *D INV_X1
*I *1187:A1 I *D NAND2_X2
*CAP
1 data_in[2] 0.0004437
2 *1032:A 8.89777e-05
3 *1187:A1 1.20277e-05
4 *4:9 0.000432187
5 *4:5 0.000774882
6 *1032:A *1173:A1 2.80727e-05
7 *1032:A *1173:B2 0
8 *1032:A *476:111 0
9 *1187:A1 *1173:A1 0
10 *1187:A1 *476:8 0
11 *4:5 *885:B2 3.64845e-05
12 *4:5 *906:D 1.41532e-05
13 *4:9 *878:A1 0
14 *4:9 *881:A2 0
15 *4:9 *881:A3 4.09107e-05
16 *4:9 *883:B 0
17 *4:9 *884:A2 7.83491e-05
18 *4:9 *884:B2 0
19 *4:9 *885:B2 4.69086e-05
20 *4:9 *889:A1 0
21 *4:9 *889:B2 0
22 *4:9 *845:24 0
*RES
1 data_in[2] *4:5 50.8929 
2 *4:5 *4:9 37.3036 
3 *4:9 *1187:A1 11.25 
4 *4:9 *1032:A 19.75 
*END

*D_NET *6 0.00183398
*CONN
*P data_in[4] I
*I *1183:A1 I *D NAND2_X2
*I *1030:A I *D INV_X1
*CAP
1 data_in[4] 8.75793e-06
2 *1183:A1 0
3 *1030:A 8.12474e-05
4 *6:13 0.000117102
5 *6:9 0.000734792
6 *6:7 0.000707696
7 *1030:A *474:10 4.63731e-05
8 *1030:A *831:40 0
9 *6:9 *872:A 0
10 *6:9 *902:B1 2.54949e-06
11 *6:9 *1518:CK 1.68847e-05
12 *6:9 *831:40 9.4049e-05
13 *6:9 *831:42 2.45311e-05
*RES
1 data_in[4] *6:7 1.08929 
2 *6:7 *6:9 83.7143 
3 *6:9 *6:13 8.25 
4 *6:13 *1030:A 26.1071 
5 *6:13 *1183:A1 5 
*END

*D_NET *7 0.00179227
*CONN
*P data_in[5] I
*I *1029:A I *D INV_X1
*I *1181:A1 I *D NAND2_X2
*CAP
1 data_in[5] 0.000765375
2 *1029:A 7.92333e-05
3 *1181:A1 2.82052e-05
4 *7:5 0.000872814
5 *1029:A *411:16 1.16867e-05
6 *1029:A *473:10 0
7 *1181:A1 *476:8 1.32101e-05
8 *7:5 *876:A2 3.92597e-06
9 *7:5 *877:B 1.49198e-05
10 *7:5 *898:A2 2.90163e-06
11 *7:5 *473:10 0
*RES
1 data_in[5] *7:5 84.4822 
2 *7:5 *1181:A1 13.25 
3 *7:5 *1029:A 19.1071 
*END

*D_NET *10 0.00258211
*CONN
*P data_out[0] O
*I *1162:B1 I *D OAI21_X1
*I *1372:Q O *D DFF_X1
*CAP
1 data_out[0] 4.14181e-05
2 *1162:B1 0
3 *1372:Q 9.27707e-05
4 *10:23 0.000764771
5 *10:21 0.000773912
6 *10:12 0.00014333
7 data_out[0] data_out[1] 2.16072e-07
8 data_out[0] data_out[3] 0
9 data_out[0] data_out[5] 0
10 *10:12 *11:25 6.06867e-06
11 *10:12 *827:148 0
12 *10:12 *843:38 1.50063e-05
13 *10:21 *1372:CK 7.179e-06
14 *10:21 *827:142 4.12792e-05
15 *10:21 *827:148 2.39679e-06
16 *10:23 data_out[1] 0
17 *10:23 data_out[5] 0.000115958
18 *10:23 *1088:B2 1.27802e-05
19 *10:23 *1089:A 2.52965e-06
20 *10:23 *1090:A 1.56618e-05
21 *10:23 *1090:B2 0
22 *10:23 *1103:B1 2.56352e-05
23 *10:23 *1374:CK 0
24 *10:23 *1377:CK 2.07643e-05
25 *10:23 *11:25 0
26 *10:23 *12:19 0
27 *10:23 *375:90 1.04006e-05
28 *10:23 *827:119 3.46934e-05
29 *10:23 *827:134 0.000108899
30 *10:23 *827:136 0.000274943
31 *10:23 *827:142 7.14998e-05
*RES
1 *1372:Q *10:12 24.4286 
2 *10:12 *1162:B1 5 
3 *10:12 *10:21 5.53572 
4 *10:21 *10:23 94.25 
5 *10:23 data_out[0] 4.39286 
*END

*D_NET *11 0.00353283
*CONN
*P data_out[1] O
*I *1149:B1 I *D OAI21_X1
*I *1373:Q O *D DFF_X1
*CAP
1 data_out[1] 0.000363454
2 *1149:B1 5.42054e-05
3 *1373:Q 5.15492e-05
4 *11:25 0.00136408
5 *11:23 0.00108835
6 *11:8 0.000193484
7 data_out[1] data_out[2] 4.32298e-05
8 data_out[1] data_out[3] 7.76443e-05
9 data_out[1] data_out[5] 0
10 *1149:B1 *1119:A 1.56073e-06
11 *1149:B1 *1336:B2 4.90397e-06
12 *1149:B1 *375:54 2.51184e-05
13 *1149:B1 *462:19 0
14 *1149:B1 *827:173 1.53235e-05
15 *11:8 *1119:A 0
16 *11:8 *375:54 4.93896e-05
17 *11:8 *393:16 5.40525e-06
18 *11:23 *1119:A 1.98199e-05
19 *11:23 *1336:B2 2.91591e-06
20 *11:23 *522:8 4.33613e-05
21 *11:25 *15:12 4.79202e-06
22 *11:25 *378:20 0.000117961
23 *11:25 *827:134 0
24 *11:25 *827:136 0
25 *11:25 *827:142 0
26 data_out[0] data_out[1] 2.16072e-07
27 *10:12 *11:25 6.06867e-06
28 *10:23 data_out[1] 0
29 *10:23 *11:25 0
*RES
1 *1373:Q *11:8 16.25 
2 *11:8 *1149:B1 16.3929 
3 *11:8 *11:23 16.7857 
4 *11:23 *11:25 101.25 
5 *11:25 data_out[1] 49.9286 
*END

*D_NET *12 0.0021398
*CONN
*P data_out[2] O
*I *1134:B1 I *D OAI21_X1
*I *1374:Q O *D DFF_X1
*CAP
1 data_out[2] 6.15954e-05
2 *1134:B1 9.41467e-05
3 *1374:Q 0
4 *12:19 0.00078376
5 *12:4 0.000816311
6 data_out[2] data_out[4] 6.0887e-06
7 *1134:B1 *1132:B2 0
8 *1134:B1 *1134:A 2.75346e-06
9 *1134:B1 *1374:D 1.86809e-06
10 *1134:B1 *1374:CK 2.07669e-05
11 *1134:B1 *375:36 2.7793e-05
12 *12:19 data_out[5] 0
13 *12:19 *1090:A 0
14 *12:19 *1090:B2 0.000145156
15 *12:19 *1105:A 0
16 *12:19 *1105:B1 0
17 *12:19 *1376:CK 0
18 *12:19 *1377:D 9.70999e-05
19 *12:19 *14:12 7.31003e-06
20 *12:19 *375:36 1.15036e-05
21 *12:19 *827:109 1.69046e-05
22 *12:19 *827:119 3.51654e-06
23 data_out[1] data_out[2] 4.32298e-05
24 *10:23 *12:19 0
*RES
1 *1374:Q *12:4 5 
2 *12:4 *1134:B1 26.0714 
3 *12:4 *12:19 80.25 
4 *12:19 data_out[2] 17.6071 
*END

*D_NET *13 0.00401208
*CONN
*P data_out[3] O
*I *1119:B1 I *D OAI21_X1
*I *1375:Q O *D DFF_X1
*CAP
1 data_out[3] 8.59347e-05
2 *1119:B1 1.37381e-05
3 *1375:Q 9.9524e-05
4 *13:25 0.00174527
5 *13:23 0.00165933
6 *13:12 0.000113262
7 *1119:B1 *448:8 0
8 *13:12 *1117:B2 0
9 *13:12 *1120:A 0
10 *13:12 *448:8 0
11 *13:25 *473:45 0.00021738
12 data_out[0] data_out[3] 0
13 data_out[1] data_out[3] 7.76443e-05
*RES
1 *1375:Q *13:12 19.8214 
2 *13:12 *1119:B1 11.1071 
3 *13:12 *13:23 5 
4 *13:23 *13:25 63.63 
5 *13:25 data_out[3] 20.1429 
*END

*D_NET *14 0.00112306
*CONN
*P data_out[4] O
*I *1104:B1 I *D OAI21_X1
*I *1376:Q O *D DFF_X1
*CAP
1 data_out[4] 0.00045052
2 *1104:B1 0
3 *1376:Q 8.52853e-05
4 *14:12 0.000535805
5 data_out[4] *1074:A 0
6 data_out[4] *1105:A 0
7 data_out[4] *1376:D 0
8 data_out[4] *827:109 1.08381e-05
9 data_out[4] *827:119 2.39679e-06
10 *14:12 data_out[5] 4.79658e-06
11 *14:12 *474:98 3.01743e-06
12 *14:12 *825:8 0
13 *14:12 *827:119 1.70033e-05
14 data_out[2] data_out[4] 6.0887e-06
15 *12:19 *14:12 7.31003e-06
*RES
1 *1376:Q *14:12 24.25 
2 *14:12 *1104:B1 5 
3 *14:12 data_out[4] 47.5 
*END

*D_NET *15 0.00138538
*CONN
*P data_out[5] O
*I *1089:B1 I *D OAI21_X1
*I *1377:Q O *D DFF_X1
*CAP
1 data_out[5] 0.000430894
2 *1089:B1 0
3 *1377:Q 7.74843e-05
4 *15:12 0.000508378
5 data_out[5] *1089:A 7.72792e-06
6 data_out[5] *827:119 8.35016e-05
7 *15:12 *827:134 4.66905e-05
8 *15:12 *851:57 0.000105158
9 data_out[0] data_out[5] 0
10 data_out[1] data_out[5] 0
11 *10:23 data_out[5] 0.000115958
12 *11:25 *15:12 4.79202e-06
13 *12:19 data_out[5] 0
14 *14:12 data_out[5] 4.79658e-06
*RES
1 *1377:Q *15:12 24.9286 
2 *15:12 *1089:B1 5 
3 *15:12 data_out[5] 52.25 
*END

*D_NET *16 0.00128557
*CONN
*P data_out[6] O
*I *1074:B1 I *D OAI21_X1
*I *1378:Q O *D DFF_X1
*CAP
1 data_out[6] 0.000398199
2 *1074:B1 3.28291e-05
3 *1378:Q 3.08063e-05
4 *16:12 0.000440126
5 *16:8 0.000105562
6 data_out[6] data_out[7] 0.000104403
7 *1074:B1 data_out[7] 2.55787e-06
8 *1074:B1 *1074:A 6.66211e-05
9 *1074:B1 *1378:D 5.01004e-05
10 *16:8 *474:98 1.46241e-05
11 *16:12 *1378:D 1.67051e-05
12 *16:12 *474:98 2.30381e-05
*RES
1 *1378:Q *16:8 13.6429 
2 *16:8 *16:12 10.6786 
3 *16:12 data_out[6] 46.25 
4 *16:8 *1074:B1 16.25 
*END

*D_NET *17 0.00280083
*CONN
*P data_out[7] O
*I *1337:B2 I *D OAI21_X1
*I *1379:Q O *D DFF_X1
*CAP
1 data_out[7] 0.0005064
2 *1337:B2 0
3 *1379:Q 7.02318e-05
4 *17:18 0.000527284
5 *17:16 0.000506399
6 *17:14 0.000507553
7 *17:10 9.22707e-05
8 data_out[7] *1074:A 0
9 data_out[7] *1075:A 0
10 data_out[7] *1075:B2 2.55331e-06
11 data_out[7] *1378:D 9.52299e-06
12 data_out[7] *1378:CK 4.95679e-05
13 *17:10 *375:42 0
14 *17:10 *458:12 8.88396e-05
15 *17:10 *462:19 4.31693e-05
16 *17:14 *458:12 6.97608e-05
17 *17:16 *1068:A2 5.01004e-05
18 *17:16 *1073:B2 9.62051e-07
19 *17:16 *1073:C1 0
20 *17:16 *1075:B2 6.59963e-05
21 *17:16 *1132:B2 0
22 *17:16 *1135:B2 0
23 *17:16 *23:61 0
24 *17:16 *23:65 0
25 *17:16 *23:67 0
26 *17:16 *375:10 7.09827e-05
27 *17:16 *378:20 0
28 *17:16 *384:28 3.05062e-05
29 *17:18 *1075:B2 1.76665e-06
30 data_out[6] data_out[7] 0.000104403
31 *1074:B1 data_out[7] 2.55787e-06
*RES
1 *1379:Q *17:10 19.25 
2 *17:10 *17:14 8.64286 
3 *17:14 *17:16 53.75 
4 *17:16 *17:18 2.28572 
5 *17:18 data_out[7] 58.75 
6 *17:10 *1337:B2 10 
*END

*D_NET *18 0.000971629
*CONN
*P empty O
*I *868:ZN O *D NOR2_X1
*CAP
1 empty 0.0003952
2 *868:ZN 6.53934e-05
3 *18:14 0.000460593
4 empty full 0
5 empty *19:8 5.04424e-05
6 *18:14 *898:A1 0
*RES
1 *868:ZN *18:14 26.3571 
2 *18:14 empty 46.4822 
*END

*D_NET *19 0.000910612
*CONN
*P full O
*I *871:ZN O *D AND2_X1
*CAP
1 full 1.26399e-05
2 *871:ZN 0
3 *19:8 0.000429896
4 *19:6 0.000417256
5 full *27:5 3.77173e-07
6 *19:8 *898:A1 0
7 *19:8 *27:5 0
8 empty full 0
9 empty *19:8 5.04424e-05
*RES
1 *871:ZN *19:6 10 
2 *19:6 *19:8 49.1072 
3 *19:8 full 1.58929 
*END

*D_NET *79 0.000337753
*CONN
*I *1378:D I *D DFF_X1
*I *1075:ZN O *D AOI21_X1
*CAP
1 *1378:D 0.000111426
2 *1075:ZN 0.000111426
3 *1378:D *1075:A 1.18056e-05
4 *1378:D *1075:B2 6.56185e-06
5 *1378:D *1378:CK 2.02052e-05
6 *1378:D *851:57 0
7 data_out[7] *1378:D 9.52299e-06
8 *1074:B1 *1378:D 5.01004e-05
9 *16:12 *1378:D 1.67051e-05
*RES
1 *1075:ZN *1378:D 34.5 
*END

*D_NET *80 0.000292207
*CONN
*I *1377:D I *D DFF_X1
*I *1090:ZN O *D AOI21_X1
*CAP
1 *1377:D 8.87183e-05
2 *1090:ZN 8.87183e-05
3 *1377:D *1090:A 0
4 *1377:D *1103:B1 9.4103e-06
5 *1377:D *1103:B2 8.26038e-06
6 *12:19 *1377:D 9.70999e-05
*RES
1 *1090:ZN *1377:D 21.7857 
*END

*D_NET *81 0.000114294
*CONN
*I *1376:D I *D DFF_X1
*I *1105:ZN O *D AOI21_X1
*CAP
1 *1376:D 4.00898e-05
2 *1105:ZN 4.00898e-05
3 *1376:D *1105:A 3.41146e-05
4 data_out[4] *1376:D 0
*RES
1 *1105:ZN *1376:D 14.8571 
*END

*D_NET *82 9.9324e-05
*CONN
*I *1375:D I *D DFF_X1
*I *1120:ZN O *D AOI21_X1
*CAP
1 *1375:D 4.50472e-05
2 *1120:ZN 4.50472e-05
3 *1375:D *1117:B2 6.47615e-06
4 *1375:D *1120:A 2.75346e-06
*RES
1 *1120:ZN *1375:D 14.8571 
*END

*D_NET *83 0.000266891
*CONN
*I *1374:D I *D DFF_X1
*I *1135:ZN O *D AOI21_X1
*CAP
1 *1374:D 9.19239e-05
2 *1135:ZN 9.19239e-05
3 *1374:D *1132:A2 4.77786e-06
4 *1374:D *1132:B2 0
5 *1374:D *1134:A 1.27666e-06
6 *1374:D *1135:A 2.31008e-05
7 *1374:D *1135:B2 1.91954e-06
8 *1374:D *1374:CK 5.01004e-05
9 *1374:D *375:36 0
10 *1374:D *434:8 0
11 *1134:B1 *1374:D 1.86809e-06
*RES
1 *1135:ZN *1374:D 31.0357 
*END

*D_NET *84 0.000126296
*CONN
*I *1373:D I *D DFF_X1
*I *1150:ZN O *D AOI21_X1
*CAP
1 *1373:D 5.26138e-05
2 *1150:ZN 5.26138e-05
3 *1373:D *1150:A 9.57948e-06
4 *1373:D *462:19 1.14895e-05
*RES
1 *1150:ZN *1373:D 16.3571 
*END

*D_NET *85 0.000148429
*CONN
*I *1372:D I *D DFF_X1
*I *1163:ZN O *D AOI21_X1
*CAP
1 *1372:D 4.66852e-05
2 *1163:ZN 4.66852e-05
3 *1372:D *1163:A 4.27253e-05
4 *1372:D *1372:CK 2.75346e-06
5 *1372:D *393:16 9.57948e-06
6 *1372:D *827:148 0
*RES
1 *1163:ZN *1372:D 16.3571 
*END

*D_NET *86 0.000389422
*CONN
*I *1370:D I *D DFF_X1
*I *1169:ZN O *D OAI22_X1
*CAP
1 *1370:D 0.000148199
2 *1169:ZN 0.000148199
3 *1370:D *1008:A 3.51992e-06
4 *1370:D *1020:A 1.40196e-06
5 *1370:D *1169:A2 4.58634e-05
6 *1370:D *1169:B1 1.18232e-06
7 *1370:D *1169:B2 4.177e-06
8 *1370:D *1175:A1 7.09666e-06
9 *1370:D *1175:B2 1.23214e-06
10 *1370:D *1364:D 3.51536e-06
11 *1370:D *1364:CK 1.43542e-05
12 *1370:D *467:62 1.0682e-05
*RES
1 *1169:ZN *1370:D 37.0357 
*END

*D_NET *87 0.000177825
*CONN
*I *1369:D I *D DFF_X1
*I *1170:ZN O *D OAI22_X1
*CAP
1 *1369:D 5.12094e-05
2 *1170:ZN 5.12094e-05
3 *1369:D *1170:B2 1.16067e-05
4 *1369:D *1369:CK 4.45934e-05
5 *1369:D *467:35 1.92063e-05
6 *1369:D *473:10 0
*RES
1 *1170:ZN *1369:D 27.2143 
*END

*D_NET *88 0.000259713
*CONN
*I *1368:D I *D DFF_X1
*I *1171:ZN O *D OAI22_X1
*CAP
1 *1368:D 9.33824e-05
2 *1171:ZN 9.33824e-05
3 *1368:D *1171:A1 6.32202e-06
4 *1368:D *474:10 2.25647e-05
5 *1368:D *474:16 4.4061e-05
6 *1368:D *831:38 0
*RES
1 *1171:ZN *1368:D 31.2857 
*END

*D_NET *89 0.000160808
*CONN
*I *1367:D I *D DFF_X1
*I *1172:ZN O *D OAI22_X1
*CAP
1 *1367:D 5.2384e-05
2 *1172:ZN 5.2384e-05
3 *1367:D *1172:A1 2.39679e-06
4 *1367:D *1172:A2 2.24822e-06
5 *1367:D *1172:B1 1.26998e-05
6 *1367:D *467:29 5.11574e-06
7 *1367:D *468:74 3.35796e-05
*RES
1 *1172:ZN *1367:D 16.5357 
*END

*D_NET *90 0.000145202
*CONN
*I *1366:D I *D DFF_X1
*I *1173:ZN O *D OAI22_X1
*CAP
1 *1366:D 3.12591e-05
2 *1173:ZN 3.12591e-05
3 *1366:D *1173:A1 3.35822e-05
4 *1366:D *467:62 4.6837e-06
5 *1366:D *468:26 4.44177e-05
*RES
1 *1173:ZN *1366:D 15.1786 
*END

*D_NET *91 0.000139324
*CONN
*I *1365:D I *D DFF_X1
*I *1174:ZN O *D OAI22_X1
*CAP
1 *1365:D 4.15464e-05
2 *1174:ZN 4.15464e-05
3 *1365:D *467:48 4.61743e-05
4 *1365:D *468:10 1.00571e-05
*RES
1 *1174:ZN *1365:D 15.8571 
*END

*D_NET *92 0.000147969
*CONN
*I *1364:D I *D DFF_X1
*I *1175:ZN O *D OAI22_X1
*CAP
1 *1364:D 5.42382e-05
2 *1175:ZN 5.42382e-05
3 *1364:D *1169:A2 0
4 *1364:D *467:62 1.39155e-05
5 *1364:D *468:26 2.20619e-05
6 *1370:D *1364:D 3.51536e-06
*RES
1 *1175:ZN *1364:D 16.5357 
*END

*D_NET *93 0.000166417
*CONN
*I *1362:D I *D DFF_X1
*I *1180:ZN O *D OAI22_X1
*CAP
1 *1362:D 5.92941e-05
2 *1180:ZN 5.92941e-05
3 *1362:D *1180:A1 1.37673e-05
4 *1362:D *1180:A2 7.36912e-06
5 *1362:D *1180:B2 2.66927e-05
6 *1362:D *455:10 0
*RES
1 *1180:ZN *1362:D 26.7857 
*END

*D_NET *94 0.000194045
*CONN
*I *1361:D I *D DFF_X1
*I *1182:ZN O *D OAI22_X1
*CAP
1 *1361:D 6.23369e-05
2 *1182:ZN 6.23369e-05
3 *1361:D *470:16 4.04875e-05
4 *1361:D *471:15 2.52965e-06
5 *1361:D *473:28 1.52538e-05
6 *1361:D *473:41 1.11006e-05
*RES
1 *1182:ZN *1361:D 27.4643 
*END

*D_NET *95 0.000376788
*CONN
*I *1360:D I *D DFF_X1
*I *1184:ZN O *D OAI22_X1
*CAP
1 *1360:D 0.000165561
2 *1184:ZN 0.000165561
3 *1360:D *1177:A1 2.52965e-06
4 *1360:D *1360:CK 8.62655e-06
5 *1360:D *402:12 0
6 *1360:D *470:8 3.45089e-05
*RES
1 *1184:ZN *1360:D 37.2143 
*END

*D_NET *96 0.000172637
*CONN
*I *1359:D I *D DFF_X1
*I *1186:ZN O *D OAI22_X1
*CAP
1 *1359:D 6.28268e-05
2 *1186:ZN 6.28268e-05
3 *1359:D *416:12 2.74207e-06
4 *1359:D *470:16 1.78665e-05
5 *1359:D *471:15 5.69557e-06
6 *1359:D *832:12 2.0679e-05
*RES
1 *1186:ZN *1359:D 27.4643 
*END

*D_NET *97 0.000142141
*CONN
*I *1358:D I *D DFF_X1
*I *1188:ZN O *D OAI22_X1
*CAP
1 *1358:D 5.55076e-05
2 *1188:ZN 5.55076e-05
3 *1358:D *470:46 1.52374e-05
4 *1358:D *471:53 2.25089e-06
5 *1358:D *830:37 1.29217e-05
6 *1358:D *830:39 7.16188e-07
*RES
1 *1188:ZN *1358:D 17.0357 
*END

*D_NET *98 0.000180179
*CONN
*I *1357:D I *D DFF_X1
*I *1190:ZN O *D OAI22_X1
*CAP
1 *1357:D 6.41467e-05
2 *1190:ZN 6.41467e-05
3 *1357:D *444:8 8.00263e-06
4 *1357:D *830:27 4.38826e-05
*RES
1 *1190:ZN *1357:D 27.2143 
*END

*D_NET *99 0.000325192
*CONN
*I *1356:D I *D DFF_X1
*I *1192:ZN O *D OAI22_X1
*CAP
1 *1356:D 0.000115174
2 *1192:ZN 0.000115174
3 *1356:D *1009:A 1.4491e-05
4 *1356:D *1180:A2 1.46998e-05
5 *1356:D *1192:A1 5.54315e-05
6 *1356:D *1356:CK 1.02224e-05
*RES
1 *1192:ZN *1356:D 24.25 
*END

*D_NET *100 0.000121428
*CONN
*I *1490:D I *D DFF_X1
*I *1196:ZN O *D OAI22_X1
*CAP
1 *1490:D 5.60586e-05
2 *1196:ZN 5.60586e-05
3 *1490:D *1484:D 9.31049e-06
*RES
1 *1196:ZN *1490:D 25.8571 
*END

*D_NET *101 0.000386162
*CONN
*I *1489:D I *D DFF_X1
*I *1197:ZN O *D OAI22_X1
*CAP
1 *1489:D 0.000142017
2 *1197:ZN 0.000142017
3 *1489:D *1081:A2 4.4596e-05
4 *1489:D *1197:B2 3.68801e-05
5 *1489:D *473:41 6.29716e-06
6 *1489:D *480:32 0
7 *1489:D *480:40 1.43542e-05
8 *1489:D *732:10 0
*RES
1 *1197:ZN *1489:D 36.5357 
*END

*D_NET *102 0.000186796
*CONN
*I *1488:D I *D DFF_X1
*I *1198:ZN O *D OAI22_X1
*CAP
1 *1488:D 5.00048e-05
2 *1198:ZN 5.00048e-05
3 *1488:D *1198:B2 4.4596e-05
4 *1488:D *480:12 4.21902e-05
*RES
1 *1198:ZN *1488:D 26.5357 
*END

*D_NET *103 0.000281306
*CONN
*I *1487:D I *D DFF_X1
*I *1199:ZN O *D OAI22_X1
*CAP
1 *1487:D 0.000108556
2 *1199:ZN 0.000108556
3 *1487:D *1198:B1 8.62472e-06
4 *1487:D *1199:B2 3.40013e-05
5 *1487:D *473:41 0
6 *1487:D *480:14 0
7 *1487:D *481:69 6.1914e-06
8 *1487:D *851:127 1.53761e-05
9 *1487:D *851:131 0
*RES
1 *1199:ZN *1487:D 32.0357 
*END

*D_NET *104 0.000251542
*CONN
*I *1486:D I *D DFF_X1
*I *1200:ZN O *D OAI22_X1
*CAP
1 *1486:D 6.17338e-05
2 *1200:ZN 6.17338e-05
3 *1486:D *1200:B2 2.25683e-05
4 *1486:D *480:72 7.47805e-05
5 *1486:D *481:25 1.7326e-06
6 *1486:D *481:29 2.89931e-05
*RES
1 *1200:ZN *1486:D 19.6786 
*END

*D_NET *105 0.000112136
*CONN
*I *1485:D I *D DFF_X1
*I *1201:ZN O *D OAI22_X1
*CAP
1 *1485:D 2.40584e-05
2 *1201:ZN 2.40584e-05
3 *1485:D *480:54 1.88906e-05
4 *1485:D *481:21 4.51285e-05
*RES
1 *1201:ZN *1485:D 14.25 
*END

*D_NET *106 0.000344001
*CONN
*I *1484:D I *D DFF_X1
*I *1202:ZN O *D OAI22_X1
*CAP
1 *1484:D 0.000117711
2 *1202:ZN 0.000117711
3 *1484:D *1196:A2 2.61603e-05
4 *1484:D *1196:B1 5.11118e-06
5 *1484:D *301:12 6.67161e-05
6 *1484:D *833:60 1.28122e-06
7 *1490:D *1484:D 9.31049e-06
*RES
1 *1202:ZN *1484:D 25.4286 
*END

*D_NET *107 0.000104114
*CONN
*I *1482:D I *D DFF_X1
*I *1206:ZN O *D OAI22_X1
*CAP
1 *1482:D 4.28769e-05
2 *1206:ZN 4.28769e-05
3 *1482:D *1206:B2 1.00571e-05
4 *1482:D *1482:CK 8.30282e-06
*RES
1 *1206:ZN *1482:D 15.1786 
*END

*D_NET *108 0.00017106
*CONN
*I *1481:D I *D DFF_X1
*I *1207:ZN O *D OAI22_X1
*CAP
1 *1481:D 4.67126e-05
2 *1207:ZN 4.67126e-05
3 *1481:D *1112:A1 1.29746e-06
4 *1481:D *1207:B2 1.11258e-05
5 *1481:D *1481:CK 0
6 *1481:D *484:12 1.77697e-05
7 *1481:D *831:8 4.74419e-05
*RES
1 *1207:ZN *1481:D 26.5357 
*END

*D_NET *109 0.000265109
*CONN
*I *1480:D I *D DFF_X1
*I *1208:ZN O *D OAI22_X1
*CAP
1 *1480:D 0.000100382
2 *1208:ZN 0.000100382
3 *1480:D *1467:CK 0
4 *1480:D *465:33 3.65322e-06
5 *1480:D *474:275 5.06354e-05
6 *1480:D *483:18 1.00571e-05
*RES
1 *1208:ZN *1480:D 22.0357 
*END

*D_NET *110 0.000112136
*CONN
*I *1479:D I *D DFF_X1
*I *1209:ZN O *D OAI22_X1
*CAP
1 *1479:D 2.40584e-05
2 *1209:ZN 2.40584e-05
3 *1479:D *483:26 1.88906e-05
4 *1479:D *484:21 4.51285e-05
*RES
1 *1209:ZN *1479:D 14.25 
*END

*D_NET *111 0.000236763
*CONN
*I *1478:D I *D DFF_X1
*I *1210:ZN O *D OAI22_X1
*CAP
1 *1478:D 8.90411e-05
2 *1210:ZN 8.90411e-05
3 *1478:D *1478:CK 2.75346e-06
4 *1478:D *483:52 3.82525e-05
5 *1478:D *484:76 1.76747e-05
*RES
1 *1210:ZN *1478:D 21.2857 
*END

*D_NET *112 0.000350948
*CONN
*I *1477:D I *D DFF_X1
*I *1211:ZN O *D OAI22_X1
*CAP
1 *1477:D 7.60325e-05
2 *1211:ZN 7.60325e-05
3 *1477:D *1211:A2 6.24846e-06
4 *1477:D *1330:A1 1.56073e-06
5 *1477:D *1477:CK 7.83734e-05
6 *1477:D *484:64 0.0001127
*RES
1 *1211:ZN *1477:D 32.0357 
*END

*D_NET *113 9.34446e-05
*CONN
*I *1476:D I *D DFF_X1
*I *1212:ZN O *D OAI22_X1
*CAP
1 *1476:D 2.78317e-05
2 *1212:ZN 2.78317e-05
3 *1476:D *1206:A2 1.88906e-05
4 *1476:D *1212:B2 1.88906e-05
*RES
1 *1212:ZN *1476:D 14.25 
*END

*D_NET *114 0.000490789
*CONN
*I *1474:D I *D DFF_X1
*I *1216:ZN O *D OAI22_X1
*CAP
1 *1474:D 0.000191883
2 *1216:ZN 0.000191883
3 *1474:D *967:A 1.5896e-05
4 *1474:D *980:A 1.40196e-06
5 *1474:D *1216:B2 9.62051e-07
6 *1474:D *1242:A1 1.72061e-05
7 *1474:D *1243:B1 8.62655e-06
8 *1474:D *1450:D 1.00571e-05
9 *1474:D *1450:CK 3.96215e-05
10 *1474:D *1474:CK 9.74193e-06
11 *1474:D *493:41 3.5108e-06
12 *1474:D *839:102 0
*RES
1 *1216:ZN *1474:D 32.5357 
*END

*D_NET *115 0.000547597
*CONN
*I *1473:D I *D DFF_X1
*I *1217:ZN O *D OAI22_X1
*CAP
1 *1473:D 0.000192251
2 *1217:ZN 0.000192251
3 *1473:D *1217:B2 5.57182e-06
4 *1473:D *1244:A1 7.0096e-06
5 *1473:D *1244:B1 3.72354e-05
6 *1473:D *1244:B2 3.34038e-05
7 *1473:D *1449:D 4.33107e-05
8 *1473:D *487:44 0
9 *1473:D *839:22 1.64551e-05
10 *1473:D *839:31 2.01083e-05
*RES
1 *1217:ZN *1473:D 43.75 
*END

*D_NET *116 0.000187361
*CONN
*I *1472:D I *D DFF_X1
*I *1218:ZN O *D OAI22_X1
*CAP
1 *1472:D 7.96499e-05
2 *1218:ZN 7.96499e-05
3 *1472:D *1218:A1 4.31937e-06
4 *1472:D *1218:B1 0
5 *1472:D *1218:B2 2.28988e-05
6 *1472:D *1472:CK 8.43215e-07
*RES
1 *1218:ZN *1472:D 28.5714 
*END

*D_NET *117 0.00051236
*CONN
*I *1471:D I *D DFF_X1
*I *1219:ZN O *D OAI22_X1
*CAP
1 *1471:D 0.000126928
2 *1219:ZN 0.000126928
3 *1471:D *973:A 0
4 *1471:D *1246:B1 6.9115e-05
5 *1471:D *1246:B2 4.92863e-06
6 *1471:D *1447:D 0
7 *1471:D *493:68 9.24779e-05
8 *1471:D *837:24 5.06354e-05
9 *1471:D *837:30 4.13466e-05
*RES
1 *1219:ZN *1471:D 39.25 
*END

*D_NET *118 0.000498821
*CONN
*I *1470:D I *D DFF_X1
*I *1220:ZN O *D OAI22_X1
*CAP
1 *1470:D 0.000146688
2 *1220:ZN 0.000146688
3 *1470:D *975:A 0
4 *1470:D *487:30 6.81048e-07
5 *1470:D *487:97 0.000204764
*RES
1 *1220:ZN *1470:D 38.5714 
*END

*D_NET *119 0.000366467
*CONN
*I *1469:D I *D DFF_X1
*I *1221:ZN O *D OAI22_X1
*CAP
1 *1469:D 0.000129398
2 *1221:ZN 0.000129398
3 *1469:D *977:A 0
4 *1469:D *1221:B2 4.17885e-06
5 *1469:D *493:68 0.000103492
*RES
1 *1221:ZN *1469:D 34.75 
*END

*D_NET *120 0.000247884
*CONN
*I *1468:D I *D DFF_X1
*I *1222:ZN O *D OAI22_X1
*CAP
1 *1468:D 0.000112529
2 *1222:ZN 0.000112529
3 *1468:D *979:A 1.03979e-05
4 *1468:D *992:A 1.91498e-06
5 *1468:D *1351:A2 7.29164e-07
6 *1468:D *1444:D 4.47286e-06
7 *1468:D *1468:CK 2.75346e-06
8 *1468:D *365:46 0
9 *1468:D *487:121 0
10 *1468:D *493:41 0
11 *1468:D *493:45 2.55787e-06
12 *1468:D *743:6 0
*RES
1 *1222:ZN *1468:D 21.9643 
*END

*D_NET *121 0.000384236
*CONN
*I *1466:D I *D DFF_X1
*I *1225:ZN O *D OAI22_X1
*CAP
1 *1466:D 0.000107234
2 *1225:ZN 0.000107234
3 *1466:D *1225:B1 9.10562e-05
4 *1466:D *288:6 2.23871e-06
5 *1466:D *827:23 7.64721e-05
*RES
1 *1225:ZN *1466:D 34.4286 
*END

*D_NET *122 0.000153589
*CONN
*I *1465:D I *D DFF_X1
*I *1226:ZN O *D OAI22_X1
*CAP
1 *1465:D 5.78207e-05
2 *1226:ZN 5.78207e-05
3 *1465:D *1226:A1 4.79202e-06
4 *1465:D *1226:B2 3.07768e-05
5 *1465:D *473:207 2.37916e-06
*RES
1 *1226:ZN *1465:D 26.5357 
*END

*D_NET *123 0.000236453
*CONN
*I *1464:D I *D DFF_X1
*I *1227:ZN O *D OAI22_X1
*CAP
1 *1464:D 8.98525e-05
2 *1227:ZN 8.98525e-05
3 *1464:D *1227:B1 1.26019e-05
4 *1464:D *1227:B2 1.23214e-06
5 *1464:D *489:20 3.32615e-05
6 *1464:D *489:31 7.11905e-07
7 *1464:D *827:12 8.9406e-06
8 *1464:D *839:16 0
*RES
1 *1227:ZN *1464:D 29.25 
*END

*D_NET *124 9.00311e-05
*CONN
*I *1463:D I *D DFF_X1
*I *1228:ZN O *D OAI22_X1
*CAP
1 *1463:D 4.50156e-05
2 *1228:ZN 4.50156e-05
3 *1463:D *987:A 0
4 *1463:D *363:57 0
*RES
1 *1228:ZN *1463:D 14.25 
*END

*D_NET *125 0.000272879
*CONN
*I *1462:D I *D DFF_X1
*I *1229:ZN O *D OAI22_X1
*CAP
1 *1462:D 9.02897e-05
2 *1229:ZN 9.02897e-05
3 *1462:D *840:39 4.45934e-05
4 *1462:D *840:75 4.77061e-05
*RES
1 *1229:ZN *1462:D 21.2857 
*END

*D_NET *126 0.000118499
*CONN
*I *1461:D I *D DFF_X1
*I *1230:ZN O *D OAI22_X1
*CAP
1 *1461:D 5.80513e-05
2 *1230:ZN 5.80513e-05
3 *1461:D *991:A 0
4 *1461:D *489:70 2.39679e-06
*RES
1 *1230:ZN *1461:D 15.8571 
*END

*D_NET *127 0.000145224
*CONN
*I *1460:D I *D DFF_X1
*I *1231:ZN O *D OAI22_X1
*CAP
1 *1460:D 6.87344e-05
2 *1231:ZN 6.87344e-05
3 *1460:D *993:A 0
4 *1460:D *1460:CK 0
5 *1460:D *489:60 7.75533e-06
*RES
1 *1231:ZN *1460:D 17.7143 
*END

*D_NET *128 0.000178933
*CONN
*I *1458:D I *D DFF_X1
*I *1234:ZN O *D OAI22_X1
*CAP
1 *1458:D 6.58529e-05
2 *1234:ZN 6.58529e-05
3 *1458:D *1234:B2 3.30815e-05
4 *1458:D *1456:CK 1.41455e-05
*RES
1 *1234:ZN *1458:D 18.7857 
*END

*D_NET *129 0.000414027
*CONN
*I *1457:D I *D DFF_X1
*I *1235:ZN O *D OAI22_X1
*CAP
1 *1457:D 0.000129477
2 *1235:ZN 0.000129477
3 *1457:D *968:A 6.07323e-06
4 *1457:D *983:A 7.19036e-06
5 *1457:D *1078:C1 1.64551e-05
6 *1457:D *1226:A1 3.39906e-05
7 *1457:D *1226:B2 1.91954e-06
8 *1457:D *1235:B2 8.58686e-06
9 *1457:D *491:26 8.08571e-05
*RES
1 *1235:ZN *1457:D 27.9643 
*END

*D_NET *130 0.00018194
*CONN
*I *1456:D I *D DFF_X1
*I *1236:ZN O *D OAI22_X1
*CAP
1 *1456:D 6.34288e-05
2 *1236:ZN 6.34288e-05
3 *1456:D *1234:B1 0
4 *1456:D *1236:A1 1.6516e-06
5 *1456:D *1236:B2 2.04163e-05
6 *1456:D *1456:CK 6.38328e-07
7 *1456:D *474:44 9.97017e-06
8 *1456:D *491:16 3.51536e-06
9 *1456:D *828:89 1.88906e-05
*RES
1 *1236:ZN *1456:D 27.8929 
*END

*D_NET *131 8.9829e-05
*CONN
*I *1455:D I *D DFF_X1
*I *1237:ZN O *D OAI22_X1
*CAP
1 *1455:D 3.54692e-05
2 *1237:ZN 3.54692e-05
3 *1455:D *1237:B2 1.88906e-05
*RES
1 *1237:ZN *1455:D 14.25 
*END

*D_NET *132 0.000324999
*CONN
*I *1454:D I *D DFF_X1
*I *1238:ZN O *D OAI22_X1
*CAP
1 *1454:D 0.000107421
2 *1238:ZN 0.000107421
3 *1454:D *1125:A 1.14945e-05
4 *1454:D *1238:B2 5.71856e-05
5 *1454:D *1452:CK 3.87239e-05
6 *1454:D *840:88 2.75346e-06
*RES
1 *1238:ZN *1454:D 24.5714 
*END

*D_NET *133 0.00010852
*CONN
*I *1453:D I *D DFF_X1
*I *1239:ZN O *D OAI22_X1
*CAP
1 *1453:D 3.16959e-05
2 *1239:ZN 3.16959e-05
3 *1453:D *491:73 4.51285e-05
4 *1453:D *823:142 0
*RES
1 *1239:ZN *1453:D 14.25 
*END

*D_NET *134 0.000241013
*CONN
*I *1452:D I *D DFF_X1
*I *1240:ZN O *D OAI22_X1
*CAP
1 *1452:D 7.65903e-05
2 *1240:ZN 7.65903e-05
3 *1452:D *978:A 0
4 *1452:D *1238:B1 8.71936e-05
5 *1452:D *1452:CK 6.38328e-07
*RES
1 *1240:ZN *1452:D 19.6786 
*END

*D_NET *135 8.66875e-05
*CONN
*I *1450:D I *D DFF_X1
*I *1243:ZN O *D OAI22_X1
*CAP
1 *1450:D 3.83152e-05
2 *1243:ZN 3.83152e-05
3 *1474:D *1450:D 1.00571e-05
*RES
1 *1243:ZN *1450:D 14.25 
*END

*D_NET *136 0.000288185
*CONN
*I *1449:D I *D DFF_X1
*I *1244:ZN O *D OAI22_X1
*CAP
1 *1449:D 0.000119996
2 *1244:ZN 0.000119996
3 *1449:D *1244:B2 4.88118e-06
4 *1473:D *1449:D 4.33107e-05
*RES
1 *1244:ZN *1449:D 33.3929 
*END

*D_NET *137 0.00032696
*CONN
*I *1448:D I *D DFF_X1
*I *1245:ZN O *D OAI22_X1
*CAP
1 *1448:D 0.000116805
2 *1245:ZN 0.000116805
3 *1448:D *487:97 9.24779e-05
4 *1448:D *493:12 8.727e-07
*RES
1 *1245:ZN *1448:D 33.0714 
*END

*D_NET *138 0.000474712
*CONN
*I *1447:D I *D DFF_X1
*I *1246:ZN O *D OAI22_X1
*CAP
1 *1447:D 0.000165004
2 *1246:ZN 0.000165004
3 *1447:D *1246:B1 9.94477e-05
4 *1447:D *493:68 4.2375e-05
5 *1447:D *837:30 2.88159e-06
6 *1471:D *1447:D 0
*RES
1 *1246:ZN *1447:D 39.75 
*END

*D_NET *139 0.000316406
*CONN
*I *1446:D I *D DFF_X1
*I *1247:ZN O *D OAI22_X1
*CAP
1 *1446:D 0.000137039
2 *1247:ZN 0.000137039
3 *1446:D *1247:B2 4.23272e-05
4 *1446:D *745:8 0
*RES
1 *1247:ZN *1446:D 33.75 
*END

*D_NET *140 0.000207267
*CONN
*I *1445:D I *D DFF_X1
*I *1248:ZN O *D OAI22_X1
*CAP
1 *1445:D 9.16668e-05
2 *1248:ZN 9.16668e-05
3 *1445:D *493:60 3.01743e-06
4 *1445:D *493:62 5.10087e-06
5 *1445:D *493:68 1.58152e-05
*RES
1 *1248:ZN *1445:D 29.9286 
*END

*D_NET *141 0.000206415
*CONN
*I *1444:D I *D DFF_X1
*I *1249:ZN O *D OAI22_X1
*CAP
1 *1444:D 8.58503e-05
2 *1249:ZN 8.58503e-05
3 *1444:D *992:A 0
4 *1444:D *1222:B1 1.87637e-06
5 *1444:D *1351:A2 8.34424e-06
6 *1444:D *473:213 0
7 *1444:D *487:121 2.00206e-05
8 *1444:D *493:45 0
9 *1468:D *1444:D 4.47286e-06
*RES
1 *1249:ZN *1444:D 19.6786 
*END

*D_NET *142 0.000505332
*CONN
*I *1442:D I *D DFF_X1
*I *1253:ZN O *D OAI22_X1
*CAP
1 *1442:D 0.000178072
2 *1253:ZN 0.000178072
3 *1442:D *952:A 5.49592e-06
4 *1442:D *1070:A1 6.22609e-06
5 *1442:D *1253:B1 7.72537e-06
6 *1442:D *1253:B2 7.02102e-06
7 *1442:D *1280:A2 2.70438e-05
8 *1442:D *1280:B2 3.90891e-05
9 *1442:D *1418:D 1.80327e-05
10 *1442:D *1442:CK 0
11 *1442:D *377:16 0
12 *1442:D *685:12 3.85541e-05
13 *1442:D *844:116 0
*RES
1 *1253:ZN *1442:D 31.8572 
*END

*D_NET *143 0.000129335
*CONN
*I *1441:D I *D DFF_X1
*I *1254:ZN O *D OAI22_X1
*CAP
1 *1441:D 3.44064e-05
2 *1254:ZN 3.44064e-05
3 *1441:D *1254:A1 1.25513e-05
4 *1441:D *1254:B1 1.04584e-06
5 *1441:D *1254:B2 1.00571e-05
6 *1441:D *473:89 3.68681e-05
*RES
1 *1254:ZN *1441:D 15.1786 
*END

*D_NET *144 0.000566483
*CONN
*I *1440:D I *D DFF_X1
*I *1255:ZN O *D OAI22_X1
*CAP
1 *1440:D 0.000159355
2 *1255:ZN 0.000159355
3 *1440:D *956:A 2.58428e-06
4 *1440:D *1100:A2 3.09143e-06
5 *1440:D *1255:A1 3.88456e-06
6 *1440:D *1255:B1 7.72537e-06
7 *1440:D *1416:D 2.88615e-06
8 *1440:D *1440:CK 2.56379e-05
9 *1440:D *405:10 5.01029e-05
10 *1440:D *825:16 7.02901e-05
11 *1440:D *825:28 7.74069e-05
12 *1440:D *844:65 4.16281e-06
*RES
1 *1255:ZN *1440:D 32.5357 
*END

*D_NET *145 0.000103885
*CONN
*I *1439:D I *D DFF_X1
*I *1256:ZN O *D OAI22_X1
*CAP
1 *1439:D 5.13339e-05
2 *1256:ZN 5.13339e-05
3 *1439:D *1283:B1 0
4 *1439:D *842:86 0
5 *1439:D *842:90 1.21774e-06
*RES
1 *1256:ZN *1439:D 15.1786 
*END

*D_NET *146 0.000127377
*CONN
*I *1438:D I *D DFF_X1
*I *1257:ZN O *D OAI22_X1
*CAP
1 *1438:D 3.68117e-05
2 *1257:ZN 3.68117e-05
3 *1438:D *1257:A1 4.09586e-05
4 *1438:D *1257:B1 3.10376e-06
5 *1438:D *496:22 9.69078e-06
*RES
1 *1257:ZN *1438:D 15.1786 
*END

*D_NET *147 0.000137849
*CONN
*I *1437:D I *D DFF_X1
*I *1258:ZN O *D OAI22_X1
*CAP
1 *1437:D 4.25139e-05
2 *1258:ZN 4.25139e-05
3 *1437:D *1258:B1 4.30088e-05
4 *1437:D *1258:B2 8.5943e-06
5 *1437:D *1437:CK 1.21774e-06
*RES
1 *1258:ZN *1437:D 15.8571 
*END

*D_NET *148 0.000238548
*CONN
*I *1436:D I *D DFF_X1
*I *1259:ZN O *D OAI22_X1
*CAP
1 *1436:D 7.74839e-05
2 *1259:ZN 7.74839e-05
3 *1436:D *964:A 3.65322e-06
4 *1436:D *1152:A1 0
5 *1436:D *1259:B2 4.39188e-06
6 *1436:D *1412:D 0
7 *1436:D *1436:CK 3.19164e-07
8 *1436:D *496:57 6.44733e-05
9 *1436:D *679:10 1.07429e-05
*RES
1 *1259:ZN *1436:D 19.75 
*END

*D_NET *149 0.000592878
*CONN
*I *1434:D I *D DFF_X1
*I *1262:ZN O *D OAI22_X1
*CAP
1 *1434:D 0.000204573
2 *1262:ZN 0.000204573
3 *1434:D *1071:A 1.08036e-07
4 *1434:D *1071:C1 4.93896e-05
5 *1434:D *1101:A 6.93684e-06
6 *1434:D *1101:C1 2.85072e-05
7 *1434:D *1264:B1 2.4699e-05
8 *1434:D *1264:B2 1.68643e-06
9 *1434:D *1432:D 6.07323e-06
10 *1434:D *1434:CK 0
11 *1434:D *405:10 0
12 *1434:D *497:65 2.52965e-06
13 *1434:D *498:10 7.11905e-07
14 *1434:D *498:12 2.06509e-05
15 *1434:D *827:230 4.24381e-05
*RES
1 *1262:ZN *1434:D 44.5714 
*END

*D_NET *150 0.000143972
*CONN
*I *1433:D I *D DFF_X1
*I *1263:ZN O *D OAI22_X1
*CAP
1 *1433:D 3.13143e-05
2 *1263:ZN 3.13143e-05
3 *1433:D *473:64 3.90865e-05
4 *1433:D *497:58 2.25089e-06
5 *1433:D *498:22 4.00059e-05
*RES
1 *1263:ZN *1433:D 15.1786 
*END

*D_NET *151 0.000147067
*CONN
*I *1432:D I *D DFF_X1
*I *1264:ZN O *D OAI22_X1
*CAP
1 *1432:D 5.25687e-05
2 *1264:ZN 5.25687e-05
3 *1432:D *957:A 0
4 *1432:D *1264:A1 1.25189e-05
5 *1432:D *1264:A2 1.11672e-05
6 *1432:D *1264:B1 9.65816e-06
7 *1432:D *1264:B2 1.87369e-06
8 *1432:D *1434:CK 6.38328e-07
9 *1434:D *1432:D 6.07323e-06
*RES
1 *1264:ZN *1432:D 16.25 
*END

*D_NET *152 0.000103639
*CONN
*I *1431:D I *D DFF_X1
*I *1265:ZN O *D OAI22_X1
*CAP
1 *1431:D 5.18197e-05
2 *1265:ZN 5.18197e-05
3 *1431:D *1116:B 0
4 *1431:D *1431:CK 0
*RES
1 *1265:ZN *1431:D 15.1786 
*END

*D_NET *153 0.000116154
*CONN
*I *1430:D I *D DFF_X1
*I *1266:ZN O *D OAI22_X1
*CAP
1 *1430:D 4.45373e-05
2 *1266:ZN 4.45373e-05
3 *1430:D *497:38 1.93517e-05
4 *1430:D *498:38 7.72792e-06
*RES
1 *1266:ZN *1430:D 15.1786 
*END

*D_NET *154 0.000130482
*CONN
*I *1429:D I *D DFF_X1
*I *1267:ZN O *D OAI22_X1
*CAP
1 *1429:D 3.62357e-05
2 *1267:ZN 3.62357e-05
3 *1429:D *497:19 7.03073e-06
4 *1429:D *498:53 5.09795e-05
*RES
1 *1267:ZN *1429:D 15.1786 
*END

*D_NET *155 0.000223137
*CONN
*I *1428:D I *D DFF_X1
*I *1268:ZN O *D OAI22_X1
*CAP
1 *1428:D 6.47442e-05
2 *1268:ZN 6.47442e-05
3 *1428:D *965:A 0
4 *1428:D *1428:CK 6.38328e-07
5 *1428:D *498:38 9.30104e-05
*RES
1 *1268:ZN *1428:D 18.75 
*END

*D_NET *156 0.000406171
*CONN
*I *1426:D I *D DFF_X1
*I *1271:ZN O *D OAI22_X1
*CAP
1 *1426:D 0.000167883
2 *1271:ZN 0.000167883
3 *1426:D *1271:B2 6.21255e-06
4 *1426:D *1273:B1 1.48692e-05
5 *1426:D *1424:D 2.86475e-06
6 *1426:D *1426:CK 0
7 *1426:D *378:10 6.44376e-06
8 *1426:D *474:98 5.86754e-06
9 *1426:D *474:106 3.11307e-05
10 *1426:D *499:97 3.01743e-06
11 *1426:D *825:8 0
*RES
1 *1271:ZN *1426:D 48.8214 
*END

*D_NET *157 0.000470836
*CONN
*I *1425:D I *D DFF_X1
*I *1272:ZN O *D OAI22_X1
*CAP
1 *1425:D 0.000113982
2 *1272:ZN 0.000113982
3 *1425:D *1272:A1 2.39679e-06
4 *1425:D *1272:A2 1.68643e-06
5 *1425:D *1422:CK 0
6 *1425:D *434:8 0
7 *1425:D *476:222 1.52083e-06
8 *1425:D *499:61 5.23214e-05
9 *1425:D *499:76 9.96576e-05
10 *1425:D *499:82 6.82202e-07
11 *1425:D *500:33 3.65322e-06
12 *1425:D *843:8 5.94562e-06
13 *1425:D *843:17 7.50073e-05
14 *1425:D *843:30 0
*RES
1 *1272:ZN *1425:D 37.2857 
*END

*D_NET *158 0.000122369
*CONN
*I *1424:D I *D DFF_X1
*I *1273:ZN O *D OAI22_X1
*CAP
1 *1424:D 3.21717e-05
2 *1273:ZN 3.21717e-05
3 *1424:D *1273:A1 7.72792e-06
4 *1424:D *474:106 3.90891e-05
5 *1424:D *843:126 8.34424e-06
6 *1426:D *1424:D 2.86475e-06
*RES
1 *1273:ZN *1424:D 14.75 
*END

*D_NET *159 8.62134e-05
*CONN
*I *1423:D I *D DFF_X1
*I *1274:ZN O *D OAI22_X1
*CAP
1 *1423:D 4.31067e-05
2 *1274:ZN 4.31067e-05
3 *1423:D *944:A 0
4 *1423:D *499:14 0
*RES
1 *1274:ZN *1423:D 14.25 
*END

*D_NET *160 0.000131332
*CONN
*I *1422:D I *D DFF_X1
*I *1275:ZN O *D OAI22_X1
*CAP
1 *1422:D 3.21044e-05
2 *1275:ZN 3.21044e-05
3 *1422:D *499:76 1.88906e-05
4 *1422:D *500:31 4.82322e-05
*RES
1 *1275:ZN *1422:D 15.1786 
*END

*D_NET *161 0.000145074
*CONN
*I *1421:D I *D DFF_X1
*I *1276:ZN O *D OAI22_X1
*CAP
1 *1421:D 3.77455e-05
2 *1276:ZN 3.77455e-05
3 *1421:D *499:31 5.34141e-05
4 *1421:D *500:41 1.61689e-05
*RES
1 *1276:ZN *1421:D 15.8571 
*END

*D_NET *162 0.000138299
*CONN
*I *1420:D I *D DFF_X1
*I *1277:ZN O *D OAI22_X1
*CAP
1 *1420:D 4.8707e-05
2 *1277:ZN 4.8707e-05
3 *1420:D *1345:A2 0
4 *1420:D *499:61 1.95766e-05
5 *1420:D *500:33 2.05797e-05
6 *1420:D *500:59 7.29164e-07
*RES
1 *1277:ZN *1420:D 16.6071 
*END

*D_NET *163 0.000206718
*CONN
*I *1418:D I *D DFF_X1
*I *1280:ZN O *D OAI22_X1
*CAP
1 *1418:D 8.33604e-05
2 *1280:ZN 8.33604e-05
3 *1418:D *377:16 6.06867e-06
4 *1418:D *685:12 1.5896e-05
5 *1442:D *1418:D 1.80327e-05
*RES
1 *1280:ZN *1418:D 19.6786 
*END

*D_NET *164 0.000162402
*CONN
*I *1417:D I *D DFF_X1
*I *1281:ZN O *D OAI22_X1
*CAP
1 *1417:D 4.9763e-05
2 *1281:ZN 4.9763e-05
3 *1417:D *941:A 3.51536e-06
4 *1417:D *1085:B2 3.04787e-06
5 *1417:D *1281:B1 4.37111e-05
6 *1417:D *473:74 1.26019e-05
*RES
1 *1281:ZN *1417:D 16.5357 
*END

*D_NET *165 0.000488744
*CONN
*I *1416:D I *D DFF_X1
*I *1282:ZN O *D OAI22_X1
*CAP
1 *1416:D 0.000171172
2 *1282:ZN 0.000171172
3 *1416:D *943:A 2.48915e-05
4 *1416:D *1255:A1 9.26304e-06
5 *1416:D *1255:B1 5.52692e-06
6 *1416:D *1282:B2 7.62896e-05
7 *1416:D *474:142 7.98822e-06
8 *1416:D *683:12 1.4491e-05
9 *1416:D *825:16 3.88123e-06
10 *1416:D *825:28 1.18232e-06
11 *1440:D *1416:D 2.88615e-06
*RES
1 *1282:ZN *1416:D 31.2857 
*END

*D_NET *166 0.000116374
*CONN
*I *1415:D I *D DFF_X1
*I *1283:ZN O *D OAI22_X1
*CAP
1 *1415:D 5.8187e-05
2 *1283:ZN 5.8187e-05
3 *1415:D *945:A 0
*RES
1 *1283:ZN *1415:D 15.8571 
*END

*D_NET *167 0.000128391
*CONN
*I *1414:D I *D DFF_X1
*I *1284:ZN O *D OAI22_X1
*CAP
1 *1414:D 4.22856e-05
2 *1284:ZN 4.22856e-05
3 *1414:D *947:A 2.63045e-05
4 *1414:D *433:8 3.6321e-07
5 *1414:D *496:22 1.71524e-05
*RES
1 *1284:ZN *1414:D 15.1786 
*END

*D_NET *168 0.000312235
*CONN
*I *1413:D I *D DFF_X1
*I *1285:ZN O *D OAI22_X1
*CAP
1 *1413:D 7.05492e-05
2 *1285:ZN 7.05492e-05
3 *1413:D *949:A 2.75346e-06
4 *1413:D *1145:B2 5.74742e-05
5 *1413:D *1285:B2 7.77176e-05
6 *1413:D *501:39 3.31917e-05
*RES
1 *1285:ZN *1413:D 21.6071 
*END

*D_NET *169 0.000332917
*CONN
*I *1412:D I *D DFF_X1
*I *1286:ZN O *D OAI22_X1
*CAP
1 *1412:D 0.000154054
2 *1286:ZN 0.000154054
3 *1412:D *951:A 5.52692e-06
4 *1412:D *1152:B2 6.71156e-06
5 *1412:D *1286:A2 5.52692e-06
6 *1412:D *1286:B1 2.39679e-06
7 *1412:D *1286:B2 1.56111e-06
8 *1412:D *1412:CK 1.21774e-06
9 *1412:D *496:12 0
10 *1412:D *496:57 0
11 *1412:D *501:69 1.86809e-06
12 *1412:D *502:60 0
13 *1412:D *679:10 0
14 *1436:D *1412:D 0
*RES
1 *1286:ZN *1412:D 25.8571 
*END

*D_NET *170 0.00016658
*CONN
*I *1410:D I *D DFF_X1
*I *1290:ZN O *D OAI22_X1
*CAP
1 *1410:D 4.92717e-05
2 *1290:ZN 4.92717e-05
3 *1410:D *1290:B2 4.38826e-05
4 *1410:D *825:117 1.55645e-05
5 *1410:D *826:163 8.58925e-06
*RES
1 *1290:ZN *1410:D 26.5357 
*END

*D_NET *171 0.000279408
*CONN
*I *1409:D I *D DFF_X1
*I *1291:ZN O *D OAI22_X1
*CAP
1 *1409:D 7.16143e-05
2 *1291:ZN 7.16143e-05
3 *1409:D *1291:A1 4.45934e-05
4 *1409:D *1293:B1 9.15862e-05
5 *1409:D *1409:CK 0
*RES
1 *1291:ZN *1409:D 20.3571 
*END

*D_NET *172 0.000773413
*CONN
*I *1408:D I *D DFF_X1
*I *1292:ZN O *D OAI22_X1
*CAP
1 *1408:D 0.00016889
2 *1292:ZN 0.00016889
3 *1408:D *915:A 8.26038e-06
4 *1408:D *1292:B1 1.0276e-05
5 *1408:D *1292:B2 0.000134142
6 *1408:D *1319:B2 7.13048e-05
7 *1408:D *1384:D 4.99246e-05
8 *1408:D *505:20 0.000134504
9 *1408:D *834:40 2.7221e-05
*RES
1 *1292:ZN *1408:D 47.7143 
*END

*D_NET *173 0.00023324
*CONN
*I *1407:D I *D DFF_X1
*I *1293:ZN O *D OAI22_X1
*CAP
1 *1407:D 0.000101582
2 *1293:ZN 0.000101582
3 *1407:D *930:A 9.30692e-06
4 *1407:D *1293:B2 4.47286e-06
5 *1407:D *1407:CK 0
6 *1407:D *1409:CK 0
7 *1407:D *826:138 1.62956e-05
*RES
1 *1293:ZN *1407:D 21.3571 
*END

*D_NET *174 0.000215874
*CONN
*I *1406:D I *D DFF_X1
*I *1294:ZN O *D OAI22_X1
*CAP
1 *1406:D 9.87711e-05
2 *1294:ZN 9.87711e-05
3 *1406:D *1122:A1 0
4 *1406:D *1122:B1 0
5 *1406:D *1294:B2 1.83315e-05
6 *1406:D *689:10 0
7 *1406:D *833:28 0
*RES
1 *1294:ZN *1406:D 29.25 
*END

*D_NET *175 0.000595648
*CONN
*I *1405:D I *D DFF_X1
*I *1295:ZN O *D OAI22_X1
*CAP
1 *1405:D 0.000229866
2 *1295:ZN 0.000229866
3 *1405:D *934:A 6.53779e-05
4 *1405:D *1137:A1 0
5 *1405:D *1137:A2 3.25302e-06
6 *1405:D *1137:B1 1.23811e-06
7 *1405:D *1295:B2 1.65332e-05
8 *1405:D *1322:B2 0
9 *1405:D *439:12 1.04284e-05
10 *1405:D *688:10 0
11 *1405:D *712:12 3.90865e-05
*RES
1 *1295:ZN *1405:D 45.3572 
*END

*D_NET *176 0.000162971
*CONN
*I *1404:D I *D DFF_X1
*I *1296:ZN O *D OAI22_X1
*CAP
1 *1404:D 5.94549e-05
2 *1296:ZN 5.94549e-05
3 *1404:D *1296:B2 4.4061e-05
4 *1404:D *834:59 0
5 *1404:D *834:73 0
*RES
1 *1296:ZN *1404:D 26.5357 
*END

*D_NET *177 0.000165685
*CONN
*I *1402:D I *D DFF_X1
*I *1299:ZN O *D OAI22_X1
*CAP
1 *1402:D 8.2421e-05
2 *1299:ZN 8.2421e-05
3 *1402:D *1055:A1 8.43215e-07
4 *1402:D *1312:A1 0
5 *1402:D *439:12 0
*RES
1 *1299:ZN *1402:D 27.8929 
*END

*D_NET *178 0.000106919
*CONN
*I *1401:D I *D DFF_X1
*I *1300:ZN O *D OAI22_X1
*CAP
1 *1401:D 4.89294e-05
2 *1300:ZN 4.89294e-05
3 *1401:D *516:12 0
4 *1401:D *836:46 9.06043e-06
*RES
1 *1300:ZN *1401:D 15.1786 
*END

*D_NET *179 0.000105776
*CONN
*I *1400:D I *D DFF_X1
*I *1301:ZN O *D OAI22_X1
*CAP
1 *1400:D 4.92152e-05
2 *1301:ZN 4.92152e-05
3 *1400:D *836:122 7.34533e-06
*RES
1 *1301:ZN *1400:D 15.1786 
*END

*D_NET *180 0.000331334
*CONN
*I *1399:D I *D DFF_X1
*I *1302:ZN O *D OAI22_X1
*CAP
1 *1399:D 0.000147958
2 *1302:ZN 0.000147958
3 *1399:D *1302:B2 7.94683e-06
4 *1399:D *1399:CK 2.74709e-05
5 *1399:D *516:12 0
*RES
1 *1302:ZN *1399:D 26.4286 
*END

*D_NET *181 0.000281063
*CONN
*I *1398:D I *D DFF_X1
*I *1303:ZN O *D OAI22_X1
*CAP
1 *1398:D 0.000114942
2 *1303:ZN 0.000114942
3 *1398:D *933:A 1.5896e-05
4 *1398:D *1121:A2 0
5 *1398:D *1123:A 0
6 *1398:D *1303:A1 1.27141e-05
7 *1398:D *240:12 2.25683e-05
8 *1398:D *439:12 0
9 *1398:D *476:252 0
10 *1398:D *705:10 0
*RES
1 *1303:ZN *1398:D 32.2143 
*END

*D_NET *183 0.00034414
*CONN
*I *1396:D I *D DFF_X1
*I *1305:ZN O *D OAI22_X1
*CAP
1 *1396:D 0.000138249
2 *1305:ZN 0.000138249
3 *1396:D *937:A 0
4 *1396:D *1388:CK 0
5 *1396:D *1396:CK 1.92715e-05
6 *1396:D *509:10 9.57492e-07
7 *1396:D *509:18 0
8 *1396:D *695:18 4.74133e-05
*RES
1 *1305:ZN *1396:D 25.8571 
*END

*D_NET *184 0.000367511
*CONN
*I *1394:D I *D DFF_X1
*I *1308:ZN O *D OAI22_X1
*CAP
1 *1394:D 0.00015976
2 *1308:ZN 0.00015976
3 *1394:D *1055:A1 5.1203e-06
4 *1394:D *1394:CK 2.75346e-06
5 *1394:D *509:88 3.83783e-05
6 *1394:D *709:14 1.73963e-06
7 *1394:D *833:8 0
*RES
1 *1308:ZN *1394:D 27.0357 
*END

*D_NET *185 0.000178476
*CONN
*I *1393:D I *D DFF_X1
*I *1309:ZN O *D OAI22_X1
*CAP
1 *1393:D 6.12522e-05
2 *1309:ZN 6.12522e-05
3 *1393:D *1311:B1 0
4 *1393:D *473:112 4.35096e-05
5 *1393:D *473:116 5.11191e-06
6 *1393:D *509:37 0
7 *1393:D *836:89 7.34989e-06
*RES
1 *1309:ZN *1393:D 27.2143 
*END

*D_NET *186 0.000432862
*CONN
*I *1392:D I *D DFF_X1
*I *1310:ZN O *D OAI22_X1
*CAP
1 *1392:D 0.000105505
2 *1310:ZN 0.000105505
3 *1392:D *929:A 4.4596e-05
4 *1392:D *1310:B1 3.88456e-06
5 *1392:D *1392:CK 4.88546e-05
6 *1392:D *474:152 1.25394e-05
7 *1392:D *474:154 1.39864e-05
8 *1392:D *836:122 9.79905e-05
*RES
1 *1310:ZN *1392:D 26.1071 
*END

*D_NET *187 0.000146402
*CONN
*I *1391:D I *D DFF_X1
*I *1311:ZN O *D OAI22_X1
*CAP
1 *1391:D 6.58786e-05
2 *1311:ZN 6.58786e-05
3 *1391:D *916:A 5.00979e-06
4 *1391:D *1311:B1 0
5 *1391:D *1391:CK 6.38328e-07
6 *1391:D *223:10 8.99658e-06
*RES
1 *1311:ZN *1391:D 27.2143 
*END

*D_NET *188 0.000421436
*CONN
*I *1390:D I *D DFF_X1
*I *1312:ZN O *D OAI22_X1
*CAP
1 *1390:D 0.000159392
2 *1312:ZN 0.000159392
3 *1390:D *1121:A2 0
4 *1390:D *1123:A 0
5 *1390:D *1312:B2 8.49302e-05
6 *1390:D *509:96 2.39679e-06
7 *1390:D *509:110 1.53244e-05
*RES
1 *1312:ZN *1390:D 29.2143 
*END

*D_NET *189 0.000275436
*CONN
*I *1389:D I *D DFF_X1
*I *1313:ZN O *D OAI22_X1
*CAP
1 *1389:D 0.0001354
2 *1313:ZN 0.0001354
3 *1389:D *920:A 0
4 *1389:D *1136:A2 0
5 *1389:D *1313:B2 2.14856e-06
6 *1389:D *509:110 2.48772e-06
*RES
1 *1313:ZN *1389:D 23.8929 
*END

*D_NET *190 0.00020747
*CONN
*I *1388:D I *D DFF_X1
*I *1314:ZN O *D OAI22_X1
*CAP
1 *1388:D 6.87932e-05
2 *1314:ZN 6.87932e-05
3 *1388:D *1314:B2 5.36632e-05
4 *1388:D *1388:CK 2.39679e-06
5 *1388:D *229:10 0
6 *1388:D *399:18 1.38237e-05
7 *1388:D *460:12 0
8 *1388:D *509:78 0
9 *1388:D *509:86 0
*RES
1 *1314:ZN *1388:D 28.5357 
*END

*D_NET *191 0.00021953
*CONN
*I *1386:D I *D DFF_X1
*I *1317:ZN O *D OAI22_X1
*CAP
1 *1386:D 9.9871e-05
2 *1317:ZN 9.9871e-05
3 *1386:D *1382:D 0
4 *1386:D *1386:CK 1.3604e-05
5 *1386:D *713:18 5.9679e-06
6 *1386:D *833:36 2.16072e-07
7 *1386:D *833:104 0
*RES
1 *1317:ZN *1386:D 20.6786 
*END

*D_NET *192 0.000131979
*CONN
*I *1385:D I *D DFF_X1
*I *1318:ZN O *D OAI22_X1
*CAP
1 *1385:D 5.89199e-05
2 *1318:ZN 5.89199e-05
3 *1385:D *511:104 7.03073e-06
4 *1385:D *834:130 7.16188e-07
5 *1385:D *834:143 6.3924e-06
*RES
1 *1318:ZN *1385:D 16.5357 
*END

*D_NET *193 0.000311369
*CONN
*I *1384:D I *D DFF_X1
*I *1319:ZN O *D OAI22_X1
*CAP
1 *1384:D 6.86278e-05
2 *1319:ZN 6.86278e-05
3 *1384:D *1319:B2 1.71137e-05
4 *1384:D *505:20 9.22996e-05
5 *1384:D *505:57 1.47752e-05
6 *1408:D *1384:D 4.99246e-05
*RES
1 *1319:ZN *1384:D 31.0357 
*END

*D_NET *194 0.000116543
*CONN
*I *1383:D I *D DFF_X1
*I *1320:ZN O *D OAI22_X1
*CAP
1 *1383:D 5.77487e-05
2 *1320:ZN 5.77487e-05
3 *1383:D *1320:B1 1.04584e-06
4 *1383:D *1383:CK 0
*RES
1 *1320:ZN *1383:D 15.8571 
*END

*D_NET *195 0.000277817
*CONN
*I *1382:D I *D DFF_X1
*I *1321:ZN O *D OAI22_X1
*CAP
1 *1382:D 0.000131259
2 *1321:ZN 0.000131259
3 *1382:D *1317:B1 0
4 *1382:D *1317:B2 0
5 *1382:D *1321:A1 9.22998e-06
6 *1382:D *833:36 0
7 *1382:D *833:104 6.06867e-06
8 *1386:D *1382:D 0
*RES
1 *1321:ZN *1382:D 33.75 
*END

*D_NET *196 0.00044035
*CONN
*I *1381:D I *D DFF_X1
*I *1322:ZN O *D OAI22_X1
*CAP
1 *1381:D 0.000181866
2 *1322:ZN 0.000181866
3 *1381:D *1060:B 1.76665e-06
4 *1381:D *1322:B1 4.4245e-05
5 *1381:D *366:14 3.0607e-05
6 *1381:D *709:14 0
*RES
1 *1322:ZN *1381:D 31.7143 
*END

*D_NET *197 0.00023417
*CONN
*I *1380:D I *D DFF_X1
*I *1323:ZN O *D OAI22_X1
*CAP
1 *1380:D 0.000104485
2 *1323:ZN 0.000104485
3 *1380:D *1158:B2 4.9829e-06
4 *1380:D *1323:B2 8.58953e-06
5 *1380:D *1380:CK 1.16279e-05
6 *1380:D *711:10 0
*RES
1 *1323:ZN *1380:D 21.2857 
*END

*D_NET *198 0.000165309
*CONN
*I *1379:D I *D DFF_X1
*I *1338:ZN O *D AOI21_X1
*CAP
1 *1379:D 6.69896e-05
2 *1338:ZN 6.69896e-05
3 *1379:D *1338:A 0
4 *1379:D *1338:B1 1.11168e-06
5 *1379:D *1338:B2 1.61988e-05
6 *1379:D *384:28 1.40196e-05
*RES
1 *1338:ZN *1379:D 28.25 
*END

*D_NET *199 0.000129108
*CONN
*I *1387:D I *D DFF_X1
*I *1340:ZN O *D OAI22_X1
*CAP
1 *1387:D 6.42351e-05
2 *1340:ZN 6.42351e-05
3 *1387:D *515:12 0
4 *1387:D *834:110 6.38328e-07
*RES
1 *1340:ZN *1387:D 16.5357 
*END

*D_NET *200 0.000212869
*CONN
*I *1395:D I *D DFF_X1
*I *1341:ZN O *D OAI22_X1
*CAP
1 *1395:D 5.02123e-05
2 *1341:ZN 5.02123e-05
3 *1395:D *1035:A 6.44574e-06
4 *1395:D *1328:C1 1.77822e-05
5 *1395:D *1341:A2 4.4596e-05
6 *1395:D *1395:CK 6.38328e-07
7 *1395:D *342:8 4.29819e-05
*RES
1 *1341:ZN *1395:D 27.2143 
*END

*D_NET *201 0.000116374
*CONN
*I *1403:D I *D DFF_X1
*I *1342:ZN O *D OAI22_X1
*CAP
1 *1403:D 5.8187e-05
2 *1342:ZN 5.8187e-05
3 *1403:D *1038:A 0
4 *1403:D *1403:CK 0
5 *1403:D *516:12 0
*RES
1 *1342:ZN *1403:D 15.8571 
*END

*D_NET *202 0.000227756
*CONN
*I *1411:D I *D DFF_X1
*I *1343:ZN O *D OAI22_X1
*CAP
1 *1411:D 8.74858e-05
2 *1343:ZN 8.74858e-05
3 *1411:D *1327:A1 0
4 *1411:D *1327:A2 1.02224e-05
5 *1411:D *1343:A2 4.25617e-05
6 *1411:D *825:111 0
*RES
1 *1343:ZN *1411:D 20.6786 
*END

*D_NET *203 0.000109635
*CONN
*I *1419:D I *D DFF_X1
*I *1344:ZN O *D OAI22_X1
*CAP
1 *1419:D 4.20914e-05
2 *1344:ZN 4.20914e-05
3 *1419:D *1283:B1 2.54524e-05
*RES
1 *1344:ZN *1419:D 15.1786 
*END

*D_NET *204 0.000125946
*CONN
*I *1427:D I *D DFF_X1
*I *1345:ZN O *D OAI22_X1
*CAP
1 *1427:D 4.02494e-05
2 *1345:ZN 4.02494e-05
3 *1427:D *1345:A2 3.19164e-07
4 *1427:D *499:31 4.51285e-05
5 *1427:D *500:59 0
*RES
1 *1345:ZN *1427:D 15.1786 
*END

*D_NET *205 9.22667e-05
*CONN
*I *1435:D I *D DFF_X1
*I *1346:ZN O *D OAI22_X1
*CAP
1 *1435:D 3.52708e-05
2 *1346:ZN 3.52708e-05
3 *1435:D *1153:B 3.58099e-06
4 *1435:D *498:53 1.81442e-05
5 *1435:D *842:8 0
*RES
1 *1346:ZN *1435:D 14.25 
*END

*D_NET *206 0.000156203
*CONN
*I *1443:D I *D DFF_X1
*I *1347:ZN O *D OAI22_X1
*CAP
1 *1443:D 4.77799e-05
2 *1347:ZN 4.77799e-05
3 *1443:D *1254:B1 4.5641e-05
4 *1443:D *1333:B2 4.07267e-06
5 *1443:D *842:103 1.09294e-05
*RES
1 *1347:ZN *1443:D 17.25 
*END

*D_NET *207 0.000123201
*CONN
*I *1451:D I *D DFF_X1
*I *1348:ZN O *D OAI22_X1
*CAP
1 *1451:D 4.10737e-05
2 *1348:ZN 4.10737e-05
3 *1451:D *1475:D 4.10539e-05
*RES
1 *1348:ZN *1451:D 15.1786 
*END

*D_NET *208 0.000107302
*CONN
*I *1459:D I *D DFF_X1
*I *1349:ZN O *D OAI22_X1
*CAP
1 *1459:D 3.96789e-05
2 *1349:ZN 3.96789e-05
3 *1459:D *1349:A2 1.00571e-05
4 *1459:D *1467:D 1.78875e-05
*RES
1 *1349:ZN *1459:D 15.1786 
*END

*D_NET *209 0.000615498
*CONN
*I *1467:D I *D DFF_X1
*I *1350:ZN O *D OAI22_X1
*CAP
1 *1467:D 0.000242098
2 *1350:ZN 0.000242098
3 *1467:D *1324:A3 1.36363e-05
4 *1467:D *1326:C1 0
5 *1467:D *1326:C2 5.64998e-06
6 *1467:D *1349:A1 4.43868e-06
7 *1467:D *1349:A2 2.44329e-05
8 *1467:D *1350:A1 5.95175e-05
9 *1467:D *1467:CK 6.38328e-07
10 *1467:D *513:16 5.10087e-06
11 *1459:D *1467:D 1.78875e-05
*RES
1 *1350:ZN *1467:D 48.2143 
*END

*D_NET *210 0.000427376
*CONN
*I *1475:D I *D DFF_X1
*I *1351:ZN O *D OAI22_X1
*CAP
1 *1475:D 0.00012653
2 *1351:ZN 0.00012653
3 *1475:D *1348:A2 4.4061e-05
4 *1475:D *1451:CK 0
5 *1475:D *1475:CK 7.98608e-05
6 *1475:D *837:85 9.3409e-06
7 *1451:D *1475:D 4.10539e-05
*RES
1 *1351:ZN *1475:D 28.3929 
*END

*D_NET *211 0.00010901
*CONN
*I *1483:D I *D DFF_X1
*I *1352:ZN O *D OAI22_X1
*CAP
1 *1483:D 3.83957e-05
2 *1352:ZN 3.83957e-05
3 *1483:D *483:44 2.06572e-05
4 *1483:D *484:50 3.65322e-06
5 *1483:D *829:12 7.90853e-06
*RES
1 *1352:ZN *1483:D 15.1786 
*END

*D_NET *212 0.000251488
*CONN
*I *1491:D I *D DFF_X1
*I *1353:ZN O *D OAI22_X1
*CAP
1 *1491:D 8.14007e-05
2 *1353:ZN 8.14007e-05
3 *1491:D *1047:A 3.09143e-06
4 *1491:D *1353:A1 2.86077e-05
5 *1491:D *1489:CK 1.21774e-06
6 *1491:D *480:40 3.37884e-05
7 *1491:D *481:12 1.91498e-06
8 *1491:D *734:12 1.50528e-05
9 *1491:D *833:86 5.01331e-06
*RES
1 *1353:ZN *1491:D 21.3571 
*END

*D_NET *213 0.000214799
*CONN
*I *1363:D I *D DFF_X1
*I *1354:ZN O *D OAI22_X1
*CAP
1 *1363:D 7.92135e-05
2 *1354:ZN 7.92135e-05
3 *1363:D *1363:CK 0
4 *1363:D *470:22 1.93619e-05
5 *1363:D *470:28 6.77448e-06
6 *1363:D *830:8 0
7 *1363:D *830:27 3.02351e-05
*RES
1 *1354:ZN *1363:D 29.2143 
*END

*D_NET *214 0.000172284
*CONN
*I *1371:D I *D DFF_X1
*I *1355:ZN O *D OAI22_X1
*CAP
1 *1371:D 5.41823e-05
2 *1355:ZN 5.41823e-05
3 *1371:D *1355:A1 2.39679e-06
4 *1371:D *467:37 1.69265e-05
5 *1371:D *468:8 4.4596e-05
*RES
1 *1355:ZN *1371:D 26.5357 
*END

*D_NET *216 0.000178081
*CONN
*I *1308:B2 I *D OAI22_X1
*I *909:ZN O *D INV_X1
*CAP
1 *1308:B2 6.2834e-05
2 *909:ZN 6.2834e-05
3 *1308:B2 *476:208 2.04127e-06
4 *1308:B2 *509:86 1.16012e-05
5 *1308:B2 *509:88 3.85541e-05
6 *1308:B2 *509:96 2.16072e-07
*RES
1 *909:ZN *1308:B2 27.3929 
*END

*D_NET *217 0.000169159
*CONN
*I *1317:B2 I *D OAI22_X1
*I *910:ZN O *D INV_X1
*CAP
1 *1317:B2 5.0365e-05
2 *910:ZN 5.0365e-05
3 *1317:B2 *833:36 6.84295e-05
4 *1382:D *1317:B2 0
*RES
1 *910:ZN *1317:B2 25.6786 
*END

*D_NET *219 0.000423543
*CONN
*I *1309:B2 I *D OAI22_X1
*I *1080:C1 I *D OAI221_X1
*I *912:ZN O *D INV_X1
*CAP
1 *1309:B2 1.53173e-05
2 *1080:C1 9.04333e-05
3 *912:ZN 5.55272e-05
4 *219:8 0.000161278
5 *1080:C1 *1080:A 7.16188e-07
6 *1080:C1 *1080:B2 3.1962e-06
7 *1080:C1 *473:116 2.28607e-05
8 *1080:C1 *825:82 4.79658e-06
9 *1080:C1 *836:81 5.87528e-06
10 *1309:B2 *1341:A2 2.35379e-05
11 *1309:B2 *413:8 4.70243e-06
12 *219:8 *912:A 3.49085e-06
13 *219:8 *1341:A2 8.92676e-06
14 *219:8 *1395:CK 7.11905e-07
15 *219:8 *473:112 1.03228e-05
16 *219:8 *473:116 8.58925e-06
17 *219:8 *836:81 3.26032e-06
*RES
1 *912:ZN *219:8 17.0357 
2 *219:8 *1080:C1 20.1071 
3 *219:8 *1309:B2 12.25 
*END

*D_NET *220 0.000204116
*CONN
*I *1318:B2 I *D OAI22_X1
*I *913:ZN O *D INV_X1
*CAP
1 *1318:B2 7.97506e-05
2 *913:ZN 7.97506e-05
3 *1318:B2 *1291:A1 1.79835e-05
4 *1318:B2 *1318:A1 2.38218e-06
5 *1318:B2 *511:104 2.42487e-05
*RES
1 *913:ZN *1318:B2 29.2857 
*END

*D_NET *221 0.00033466
*CONN
*I *1310:B2 I *D OAI22_X1
*I *1095:C1 I *D OAI221_X1
*I *914:ZN O *D INV_X1
*CAP
1 *1310:B2 0
2 *1095:C1 3.90988e-05
3 *914:ZN 8.67862e-05
4 *221:12 0.000125885
5 *1095:C1 *1095:A 7.16188e-07
6 *1095:C1 *1095:B2 0
7 *1095:C1 *1310:B1 1.1194e-05
8 *1095:C1 *836:122 6.33352e-05
9 *221:12 *1301:A1 0
10 *221:12 *474:154 4.79658e-06
11 *221:12 *476:275 0
12 *221:12 *836:122 2.84765e-06
*RES
1 *914:ZN *221:12 23.25 
2 *221:12 *1095:C1 10.75 
3 *221:12 *1310:B2 5 
*END

*D_NET *222 0.000362292
*CONN
*I *1319:B2 I *D OAI22_X1
*I *915:ZN O *D INV_X1
*CAP
1 *1319:B2 0.00010578
2 *915:ZN 0.00010578
3 *1319:B2 *505:20 3.8103e-06
4 *1319:B2 *511:18 4.32144e-07
5 *1319:B2 *834:40 3.96215e-05
6 *1319:B2 *834:46 1.07797e-05
7 *1319:B2 *834:59 7.66905e-06
8 *1384:D *1319:B2 1.71137e-05
9 *1408:D *1319:B2 7.13048e-05
*RES
1 *915:ZN *1319:B2 24.9286 
*END

*D_NET *223 0.000368456
*CONN
*I *1110:C1 I *D OAI221_X1
*I *1311:B2 I *D OAI22_X1
*I *916:ZN O *D INV_X1
*CAP
1 *1110:C1 0.000101283
2 *1311:B2 1.07766e-05
3 *916:ZN 6.48781e-05
4 *223:10 0.000176938
5 *1110:C1 *1110:A 0
6 *1110:C1 *825:82 0
7 *1311:B2 *1311:B1 2.75346e-06
8 *1311:B2 *413:8 2.83077e-06
9 *223:10 *916:A 0
10 *1391:D *223:10 8.99658e-06
*RES
1 *916:ZN *223:10 22.0357 
2 *223:10 *1311:B2 6.25 
3 *223:10 *1110:C1 24.4286 
*END

*D_NET *224 0.000167259
*CONN
*I *1320:B2 I *D OAI22_X1
*I *917:ZN O *D INV_X1
*CAP
1 *1320:B2 7.71966e-05
2 *917:ZN 7.71966e-05
3 *1320:B2 *917:A 3.01743e-06
4 *1320:B2 *1320:B1 7.96507e-06
5 *1320:B2 *1383:CK 1.88334e-06
*RES
1 *917:ZN *1320:B2 28.1071 
*END

*D_NET *225 0.000298895
*CONN
*I *1312:B2 I *D OAI22_X1
*I *918:ZN O *D INV_X1
*CAP
1 *1312:B2 9.36777e-05
2 *918:ZN 9.36777e-05
3 *1312:B2 *918:A 4.12911e-06
4 *1312:B2 *509:96 2.39679e-06
5 *1312:B2 *509:110 2.00838e-05
6 *1390:D *1312:B2 8.49302e-05
*RES
1 *918:ZN *1312:B2 32.3929 
*END

*D_NET *226 0.000137916
*CONN
*I *1321:B2 I *D OAI22_X1
*I *919:ZN O *D INV_X1
*CAP
1 *1321:B2 4.59161e-05
2 *919:ZN 4.59161e-05
3 *1321:B2 *1321:A1 3.57294e-05
4 *1321:B2 *1321:B1 2.39679e-06
5 *1321:B2 *366:14 9.62051e-07
6 *1321:B2 *713:18 6.99525e-06
7 *1321:B2 *833:36 0
*RES
1 *919:ZN *1321:B2 25.5357 
*END

*D_NET *227 0.000182969
*CONN
*I *1313:B2 I *D OAI22_X1
*I *920:ZN O *D INV_X1
*CAP
1 *1313:B2 6.93487e-05
2 *920:ZN 6.93487e-05
3 *1313:B2 *1136:A2 6.24257e-06
4 *1313:B2 *1136:A3 1.40196e-06
5 *1313:B2 *1313:B1 8.68997e-06
6 *1313:B2 *440:10 0
7 *1313:B2 *460:18 2.57883e-05
8 *1389:D *1313:B2 2.14856e-06
*RES
1 *920:ZN *1313:B2 28.1429 
*END

*D_NET *228 0.000457395
*CONN
*I *1322:B2 I *D OAI22_X1
*I *921:ZN O *D INV_X1
*CAP
1 *1322:B2 0.000128247
2 *921:ZN 0.000128247
3 *1322:B2 *934:A 1.27666e-06
4 *1322:B2 *1060:B 6.8975e-05
5 *1322:B2 *1137:A2 1.64551e-05
6 *1322:B2 *1137:B1 1.38502e-05
7 *1322:B2 *1137:B2 3.22609e-05
8 *1322:B2 *1322:B1 1.72426e-05
9 *1322:B2 *1405:CK 5.01029e-05
10 *1322:B2 *366:14 7.38429e-07
11 *1322:B2 *828:262 0
12 *1405:D *1322:B2 0
*RES
1 *921:ZN *1322:B2 37.2143 
*END

*D_NET *229 0.000365022
*CONN
*I *1159:C1 I *D OAI221_X1
*I *1314:B2 I *D OAI22_X1
*I *922:ZN O *D INV_X1
*CAP
1 *1159:C1 0
2 *1314:B2 8.08868e-05
3 *922:ZN 5.09293e-05
4 *229:10 0.000131816
5 *1314:B2 *1159:A 2.56109e-05
6 *1314:B2 *1388:CK 1.93619e-05
7 *1314:B2 *460:12 2.75346e-06
8 *229:10 *922:A 0
9 *1388:D *1314:B2 5.36632e-05
10 *1388:D *229:10 0
*RES
1 *922:ZN *229:10 19.3214 
2 *229:10 *1314:B2 16.4286 
3 *229:10 *1159:C1 5 
*END

*D_NET *230 0.000163829
*CONN
*I *1323:B2 I *D OAI22_X1
*I *923:ZN O *D INV_X1
*CAP
1 *1323:B2 5.11293e-05
2 *923:ZN 5.11293e-05
3 *1323:B2 *1158:B2 4.88515e-05
4 *1323:B2 *1323:B1 0
5 *1323:B2 *711:10 4.12911e-06
6 *1380:D *1323:B2 8.58953e-06
*RES
1 *923:ZN *1323:B2 26.7143 
*END

*D_NET *231 0.000213352
*CONN
*I *1290:B2 I *D OAI22_X1
*I *924:ZN O *D INV_X1
*CAP
1 *1290:B2 8.33581e-05
2 *924:ZN 8.33581e-05
3 *1290:B2 *1290:B1 2.75346e-06
4 *1410:D *1290:B2 4.38826e-05
*RES
1 *924:ZN *1290:B2 19.1786 
*END

*D_NET *232 0.000404499
*CONN
*I *1299:B2 I *D OAI22_X1
*I *1060:C2 I *D OAI211_X1
*I *925:ZN O *D INV_X1
*CAP
1 *1299:B2 7.0324e-05
2 *1060:C2 5.96444e-05
3 *925:ZN 2.22189e-05
4 *232:8 0.000152187
5 *1060:C2 *1060:A 6.44217e-06
6 *1060:C2 *367:14 0
7 *1060:C2 *476:208 2.8283e-05
8 *1060:C2 *709:14 3.41146e-05
9 *1299:B2 *1055:A1 0
10 *1299:B2 *1060:A 1.01819e-05
11 *1299:B2 *439:12 0
12 *232:8 *476:208 2.11032e-05
*RES
1 *925:ZN *232:8 12.9643 
2 *232:8 *1060:C2 17.5714 
3 *232:8 *1299:B2 17.25 
*END

*D_NET *233 0.000172799
*CONN
*I *1291:B2 I *D OAI22_X1
*I *926:ZN O *D INV_X1
*CAP
1 *1291:B2 8.24606e-05
2 *926:ZN 8.24606e-05
3 *1291:B2 *1291:A1 7.87811e-06
*RES
1 *926:ZN *1291:B2 28.0714 
*END

*D_NET *234 0.00038018
*CONN
*I *1300:B2 I *D OAI22_X1
*I *1080:B2 I *D OAI221_X1
*I *927:ZN O *D INV_X1
*CAP
1 *1300:B2 5.6938e-05
2 *1080:B2 6.66588e-05
3 *927:ZN 0
4 *234:4 0.000123597
5 *1080:B2 *927:A 2.39679e-06
6 *1080:B2 *1080:A 8.43215e-07
7 *1080:B2 *1403:CK 2.39679e-06
8 *1080:B2 *825:82 0
9 *1080:B2 *836:46 0
10 *1300:B2 *473:116 0.000106301
11 *1300:B2 *473:124 1.07931e-05
12 *1300:B2 *509:35 7.05898e-06
13 *1080:C1 *1080:B2 3.1962e-06
*RES
1 *927:ZN *234:4 5 
2 *234:4 *1080:B2 11.9286 
3 *234:4 *1300:B2 22.7143 
*END

*D_NET *235 0.000528725
*CONN
*I *1292:B2 I *D OAI22_X1
*I *928:ZN O *D INV_X1
*CAP
1 *1292:B2 0.000179399
2 *928:ZN 0.000179399
3 *1292:B2 *915:A 3.11733e-06
4 *1292:B2 *928:A 3.85496e-06
5 *1292:B2 *1094:B1 9.63725e-07
6 *1292:B2 *1292:B1 3.46965e-06
7 *1292:B2 *399:18 0
8 *1292:B2 *505:20 2.38434e-05
9 *1292:B2 *715:10 5.36441e-07
10 *1408:D *1292:B2 0.000134142
*RES
1 *928:ZN *1292:B2 41.1072 
*END

*D_NET *236 0.000392466
*CONN
*I *1301:B2 I *D OAI22_X1
*I *1095:B2 I *D OAI221_X1
*I *929:ZN O *D INV_X1
*CAP
1 *1301:B2 0
2 *1095:B2 0.000111411
3 *929:ZN 4.99451e-05
4 *236:10 0.000161356
5 *1095:B2 *1095:A 7.16188e-07
6 *1095:B2 *1301:A1 1.39839e-06
7 *1095:B2 *836:122 0
8 *236:10 *929:A 0
9 *236:10 *1301:A1 6.76399e-05
10 *1095:C1 *1095:B2 0
*RES
1 *929:ZN *236:10 20.6786 
2 *236:10 *1095:B2 16.1786 
3 *236:10 *1301:B2 5 
*END

*D_NET *237 0.000158422
*CONN
*I *1293:B2 I *D OAI22_X1
*I *930:ZN O *D INV_X1
*CAP
1 *1293:B2 7.02445e-05
2 *930:ZN 7.02445e-05
3 *1293:B2 *1409:CK 1.34605e-05
4 *1293:B2 *826:138 0
5 *1293:B2 *834:160 0
6 *1407:D *1293:B2 4.47286e-06
*RES
1 *930:ZN *1293:B2 27.5714 
*END

*D_NET *238 0.000404666
*CONN
*I *1110:B2 I *D OAI221_X1
*I *1302:B2 I *D OAI22_X1
*I *931:ZN O *D INV_X1
*CAP
1 *1110:B2 5.05893e-05
2 *1302:B2 0.000102244
3 *931:ZN 2.07258e-05
4 *238:8 0.000173559
5 *1110:B2 *931:A 0
6 *1110:B2 *1110:A 1.57087e-05
7 *1110:B2 *1399:CK 2.97625e-05
8 *1110:B2 *825:82 0
9 *1302:B2 *1399:CK 0
10 *1302:B2 *516:12 0
11 *238:8 *931:A 4.12911e-06
12 *1399:D *1302:B2 7.94683e-06
*RES
1 *931:ZN *238:8 12.2857 
2 *238:8 *1302:B2 20.1071 
3 *238:8 *1110:B2 16.75 
*END

*D_NET *239 0.000263635
*CONN
*I *1294:B2 I *D OAI22_X1
*I *932:ZN O *D INV_X1
*CAP
1 *1294:B2 7.70598e-05
2 *932:ZN 7.70598e-05
3 *1294:B2 *1137:A2 1.68643e-06
4 *1294:B2 *1294:B1 8.43215e-07
5 *1294:B2 *689:10 0
6 *1294:B2 *833:28 5.50748e-05
7 *1294:B2 *833:36 3.35796e-05
8 *1406:D *1294:B2 1.83315e-05
*RES
1 *932:ZN *1294:B2 20.3571 
*END

*D_NET *240 0.000404538
*CONN
*I *1123:C1 I *D OAI211_X1
*I *1303:B2 I *D OAI22_X1
*I *933:ZN O *D INV_X1
*CAP
1 *1123:C1 0.00011858
2 *1303:B2 0
3 *933:ZN 5.96167e-05
4 *240:12 0.000178197
5 *1123:C1 *1123:B 0
6 *1123:C1 *1303:A1 7.16188e-07
7 *1123:C1 *439:12 0
8 *240:12 *1123:A 0
9 *240:12 *1123:B 0
10 *240:12 *1303:A1 4.29713e-06
11 *240:12 *476:252 1.42373e-05
12 *240:12 *476:273 6.32461e-06
13 *240:12 *705:10 0
14 *1398:D *240:12 2.25683e-05
*RES
1 *933:ZN *240:12 21.7143 
2 *240:12 *1303:B2 5 
3 *240:12 *1123:C1 26.7857 
*END

*D_NET *241 0.000261799
*CONN
*I *1295:B2 I *D OAI22_X1
*I *934:ZN O *D INV_X1
*CAP
1 *1295:B2 6.90359e-05
2 *934:ZN 6.90359e-05
3 *1295:B2 *934:A 3.88456e-06
4 *1295:B2 *1137:A2 9.55817e-05
5 *1295:B2 *1294:B1 2.39679e-06
6 *1295:B2 *505:28 5.33113e-06
7 *1405:D *1295:B2 1.65332e-05
*RES
1 *934:ZN *1295:B2 20.3571 
*END

*D_NET *243 0.000274473
*CONN
*I *1296:B2 I *D OAI22_X1
*I *936:ZN O *D INV_X1
*CAP
1 *1296:B2 0.000110861
2 *936:ZN 0.000110861
3 *1296:B2 *1296:B1 2.75346e-06
4 *1296:B2 *1323:B1 0
5 *1296:B2 *511:72 0
6 *1296:B2 *687:14 3.88456e-06
7 *1296:B2 *834:65 2.05177e-06
8 *1296:B2 *834:73 0
9 *1404:D *1296:B2 4.4061e-05
*RES
1 *936:ZN *1296:B2 22.3929 
*END

*D_NET *244 0.000287734
*CONN
*I *1305:B2 I *D OAI22_X1
*I *1159:B2 I *D OAI221_X1
*I *937:ZN O *D INV_X1
*CAP
1 *1305:B2 0
2 *1159:B2 7.34912e-05
3 *937:ZN 3.97943e-05
4 *244:10 0.000113285
5 *1159:B2 *1159:A 1.21774e-06
6 *1159:B2 *1388:CK 0
7 *1159:B2 *460:12 4.35489e-05
8 *1159:B2 *460:16 0
9 *244:10 *460:12 0
10 *244:10 *476:273 6.79048e-07
11 *244:10 *695:18 1.57178e-05
*RES
1 *937:ZN *244:10 20.6786 
2 *244:10 *1159:B2 23.2857 
3 *244:10 *1305:B2 5 
*END

*D_NET *245 0.000166202
*CONN
*I *1271:B2 I *D OAI22_X1
*I *938:ZN O *D INV_X1
*CAP
1 *1271:B2 4.36558e-05
2 *938:ZN 4.36558e-05
3 *1271:B2 *938:A 1.72426e-05
4 *1271:B2 *378:10 0
5 *1271:B2 *406:10 0
6 *1271:B2 *499:97 5.54348e-05
7 *1426:D *1271:B2 6.21255e-06
*RES
1 *938:ZN *1271:B2 25.6786 
*END

*D_NET *246 0.000221127
*CONN
*I *1280:B2 I *D OAI22_X1
*I *939:ZN O *D INV_X1
*CAP
1 *1280:B2 6.22716e-05
2 *939:ZN 6.22716e-05
3 *1280:B2 *1253:B2 5.36696e-05
4 *1280:B2 *1280:A2 3.82566e-06
5 *1442:D *1280:B2 3.90891e-05
*RES
1 *939:ZN *1280:B2 28.0714 
*END

*D_NET *247 0.000383376
*CONN
*I *1272:B2 I *D OAI22_X1
*I *940:ZN O *D INV_X1
*CAP
1 *1272:B2 0.000118588
2 *940:ZN 0.000118588
3 *1272:B2 *473:49 4.2406e-05
4 *1272:B2 *473:64 6.70962e-05
5 *1272:B2 *500:31 1.72405e-05
6 *1272:B2 *673:6 4.32759e-06
7 *1272:B2 *843:8 8.7424e-06
8 *1272:B2 *843:17 6.38784e-06
9 *1272:B2 *851:69 0
*RES
1 *940:ZN *1272:B2 33.9286 
*END

*D_NET *248 0.000169306
*CONN
*I *1281:B2 I *D OAI22_X1
*I *941:ZN O *D INV_X1
*CAP
1 *1281:B2 4.0557e-05
2 *941:ZN 4.0557e-05
3 *1281:B2 *1254:B2 6.50827e-06
4 *1281:B2 *1281:A2 1.21603e-05
5 *1281:B2 *473:89 6.76399e-05
6 *1281:B2 *501:99 1.88334e-06
*RES
1 *941:ZN *1281:B2 25.6786 
*END

*D_NET *249 0.000230232
*CONN
*I *1273:B2 I *D OAI22_X1
*I *942:ZN O *D INV_X1
*CAP
1 *1273:B2 3.13776e-05
2 *942:ZN 3.13776e-05
3 *1273:B2 *942:A 1.72426e-05
4 *1273:B2 *474:106 9.77674e-06
5 *1273:B2 *474:119 2.10895e-05
6 *1273:B2 *851:57 0.000119369
*RES
1 *942:ZN *1273:B2 26.3571 
*END

*D_NET *250 0.000342784
*CONN
*I *1282:B2 I *D OAI22_X1
*I *943:ZN O *D INV_X1
*CAP
1 *1282:B2 8.21961e-05
2 *943:ZN 8.21961e-05
3 *1282:B2 *1253:B1 2.84765e-06
4 *1282:B2 *1255:A1 2.87703e-06
5 *1282:B2 *1282:B1 8.43215e-07
6 *1282:B2 *405:10 1.0495e-05
7 *1282:B2 *474:142 3.6114e-06
8 *1282:B2 *496:22 7.95441e-05
9 *1282:B2 *825:28 1.88334e-06
10 *1416:D *1282:B2 7.62896e-05
*RES
1 *943:ZN *1282:B2 32.6429 
*END

*D_NET *251 0.000154174
*CONN
*I *1274:B2 I *D OAI22_X1
*I *944:ZN O *D INV_X1
*CAP
1 *1274:B2 6.23653e-05
2 *944:ZN 6.23653e-05
3 *1274:B2 *944:A 0
4 *1274:B2 *448:8 0
5 *1274:B2 *499:14 2.94435e-05
*RES
1 *944:ZN *1274:B2 26.3571 
*END

*D_NET *252 0.000167741
*CONN
*I *1283:B2 I *D OAI22_X1
*I *945:ZN O *D INV_X1
*CAP
1 *1283:B2 4.82983e-05
2 *945:ZN 4.82983e-05
3 *1283:B2 *1283:A2 5.39404e-05
4 *1283:B2 *682:10 0
5 *1283:B2 *842:69 1.72042e-05
*RES
1 *945:ZN *1283:B2 25.6786 
*END

*D_NET *253 0.000398953
*CONN
*I *1275:B2 I *D OAI22_X1
*I *946:ZN O *D INV_X1
*CAP
1 *1275:B2 0.000116143
2 *946:ZN 0.000116143
3 *1275:B2 *946:A 2.61812e-06
4 *1275:B2 *500:33 8.62447e-05
5 *1275:B2 *843:30 5.03652e-05
6 *1275:B2 *843:38 2.74386e-05
*RES
1 *946:ZN *1275:B2 33.9286 
*END

*D_NET *254 0.000187902
*CONN
*I *1284:B2 I *D OAI22_X1
*I *947:ZN O *D INV_X1
*CAP
1 *1284:B2 5.08459e-05
2 *947:ZN 5.08459e-05
3 *1284:B2 *1257:A1 3.68798e-05
4 *1284:B2 *1284:A2 7.68427e-06
5 *1284:B2 *476:302 4.16464e-05
*RES
1 *947:ZN *1284:B2 25.6786 
*END

*D_NET *255 0.000133505
*CONN
*I *1276:B2 I *D OAI22_X1
*I *948:ZN O *D INV_X1
*CAP
1 *1276:B2 5.81312e-05
2 *948:ZN 5.81312e-05
3 *1276:B2 *948:A 1.72426e-05
*RES
1 *948:ZN *1276:B2 25.6786 
*END

*D_NET *256 0.000390948
*CONN
*I *1285:B2 I *D OAI22_X1
*I *949:ZN O *D INV_X1
*CAP
1 *1285:B2 0.000118201
2 *949:ZN 0.000118201
3 *1285:B2 *949:A 1.22428e-05
4 *1285:B2 *1258:B1 4.88118e-06
5 *1285:B2 *1285:B1 1.21774e-06
6 *1285:B2 *476:285 5.76144e-05
7 *1285:B2 *501:39 0
8 *1285:B2 *680:10 8.727e-07
9 *1413:D *1285:B2 7.77176e-05
*RES
1 *949:ZN *1285:B2 36.4643 
*END

*D_NET *257 0.000326918
*CONN
*I *1277:B2 I *D OAI22_X1
*I *950:ZN O *D INV_X1
*CAP
1 *1277:B2 0.000137007
2 *950:ZN 0.000137007
3 *1277:B2 *950:A 4.93896e-05
4 *1277:B2 *1345:A1 0
5 *1277:B2 *454:8 0
6 *1277:B2 *499:46 0
7 *1277:B2 *499:61 3.51536e-06
*RES
1 *950:ZN *1277:B2 34.4286 
*END

*D_NET *258 0.000202737
*CONN
*I *1286:B2 I *D OAI22_X1
*I *951:ZN O *D INV_X1
*CAP
1 *1286:B2 7.80356e-05
2 *951:ZN 7.80356e-05
3 *1286:B2 *1286:A2 1.87392e-05
4 *1286:B2 *1286:B1 2.75346e-06
5 *1286:B2 *496:57 5.10806e-06
6 *1286:B2 *496:61 2.83434e-06
7 *1286:B2 *501:50 7.94204e-06
8 *1286:B2 *501:69 7.72792e-06
9 *1412:D *1286:B2 1.56111e-06
*RES
1 *951:ZN *1286:B2 19.1429 
*END

*D_NET *259 0.000374514
*CONN
*I *1253:B2 I *D OAI22_X1
*I *952:ZN O *D INV_X1
*CAP
1 *1253:B2 0.000102165
2 *952:ZN 0.000102165
3 *1253:B2 *952:A 1.65015e-06
4 *1253:B2 *1070:A1 4.48034e-05
5 *1253:B2 *1253:B1 1.32323e-05
6 *1253:B2 *1280:A2 2.8085e-05
7 *1253:B2 *1280:B1 4.47939e-06
8 *1253:B2 *781:12 1.72426e-05
9 *1280:B2 *1253:B2 5.36696e-05
10 *1442:D *1253:B2 7.02102e-06
*RES
1 *952:ZN *1253:B2 43.75 
*END

*D_NET *260 0.000571641
*CONN
*I *1262:B2 I *D OAI22_X1
*I *1071:C1 I *D OAI211_X1
*I *953:ZN O *D INV_X1
*CAP
1 *1262:B2 0
2 *1071:C1 0.000146215
3 *953:ZN 4.47607e-05
4 *260:10 0.000190975
5 *1071:C1 *1071:A 2.21319e-05
6 *1071:C1 *1101:A 9.16146e-06
7 *1071:C1 *1101:C1 1.04659e-05
8 *1071:C1 *405:10 6.32202e-06
9 *1071:C1 *406:8 6.07323e-06
10 *1071:C1 *406:10 0
11 *1071:C1 *498:12 1.90208e-06
12 *1071:C1 *498:22 1.98272e-06
13 *260:10 *405:10 0
14 *260:10 *827:230 8.06346e-05
15 *260:10 *827:238 1.62708e-06
16 *1434:D *1071:C1 4.93896e-05
*RES
1 *953:ZN *260:10 20.6786 
2 *260:10 *1071:C1 31.6786 
3 *260:10 *1262:B2 5 
*END

*D_NET *261 0.000269022
*CONN
*I *1254:B2 I *D OAI22_X1
*I *954:ZN O *D INV_X1
*CAP
1 *1254:B2 0.000117029
2 *954:ZN 0.000117029
3 *1254:B2 *1254:A1 3.50308e-06
4 *1254:B2 *1254:B1 1.21774e-06
5 *1254:B2 *473:89 9.54782e-06
6 *1254:B2 *780:12 4.12911e-06
7 *1281:B2 *1254:B2 6.50827e-06
8 *1441:D *1254:B2 1.00571e-05
*RES
1 *954:ZN *1254:B2 33.0714 
*END

*D_NET *262 0.000427443
*CONN
*I *1263:B2 I *D OAI22_X1
*I *1086:C1 I *D OAI211_X1
*I *955:ZN O *D INV_X1
*CAP
1 *1263:B2 0
2 *1086:C1 1.99934e-05
3 *955:ZN 7.97137e-05
4 *262:10 9.97072e-05
5 *1086:C1 *1086:A 6.32202e-06
6 *1086:C1 *1131:B 1.20752e-06
7 *1086:C1 *391:10 4.24402e-05
8 *1086:C1 *392:12 4.16464e-05
9 *1086:C1 *473:64 0
10 *262:10 *955:A 3.69514e-05
11 *262:10 *391:10 9.94613e-05
12 *262:10 *473:64 0
*RES
1 *955:ZN *262:10 19.4286 
2 *262:10 *1086:C1 13.6429 
3 *262:10 *1263:B2 10 
*END

*D_NET *263 0.000213697
*CONN
*I *1255:B2 I *D OAI22_X1
*I *956:ZN O *D INV_X1
*CAP
1 *1255:B2 6.04906e-05
2 *956:ZN 6.04906e-05
3 *1255:B2 *1253:B1 2.06516e-05
4 *1255:B2 *496:22 6.32202e-06
5 *1255:B2 *825:28 3.28714e-05
6 *1255:B2 *844:65 3.28714e-05
*RES
1 *956:ZN *1255:B2 27.5714 
*END

*D_NET *264 0.000547827
*CONN
*I *1264:B2 I *D OAI22_X1
*I *1101:C1 I *D OAI211_X1
*I *957:ZN O *D INV_X1
*CAP
1 *1264:B2 4.44418e-06
2 *1101:C1 7.5446e-05
3 *957:ZN 2.53381e-05
4 *264:8 0.000105228
5 *1101:C1 *1071:A 2.41945e-05
6 *1101:C1 *1071:B 3.46292e-05
7 *1101:C1 *1101:A 4.54155e-05
8 *1101:C1 *377:18 4.70773e-06
9 *1101:C1 *474:119 4.24188e-05
10 *264:8 *377:18 3.76379e-05
11 *264:8 *474:119 4.18985e-05
12 *264:8 *474:140 6.39357e-05
13 *1071:C1 *1101:C1 1.04659e-05
14 *1432:D *1264:B2 1.87369e-06
15 *1434:D *1101:C1 2.85072e-05
16 *1434:D *1264:B2 1.68643e-06
*RES
1 *957:ZN *264:8 15.6786 
2 *264:8 *1101:C1 31.0714 
3 *264:8 *1264:B2 10.5 
*END

*D_NET *265 0.00022956
*CONN
*I *1256:B2 I *D OAI22_X1
*I *958:ZN O *D INV_X1
*CAP
1 *1256:B2 8.74951e-05
2 *958:ZN 8.74951e-05
3 *1256:B2 *1256:B1 4.78596e-06
4 *1256:B2 *1415:CK 2.16072e-07
5 *1256:B2 *842:69 0
6 *1256:B2 *842:86 4.95679e-05
*RES
1 *958:ZN *1256:B2 29.0714 
*END

*D_NET *266 0.000240037
*CONN
*I *1265:B2 I *D OAI22_X1
*I *1116:C1 I *D OAI211_X1
*I *959:ZN O *D INV_X1
*CAP
1 *1265:B2 0
2 *1116:C1 2.57071e-05
3 *959:ZN 5.49871e-05
4 *266:8 8.06942e-05
5 *1116:C1 *1116:A 1.72405e-05
6 *1116:C1 *1265:B1 2.54776e-05
7 *266:8 *1265:B1 6.32202e-06
8 *266:8 *842:36 2.06764e-05
9 *266:8 *842:47 8.93174e-06
*RES
1 *959:ZN *266:8 16.3571 
2 *266:8 *1116:C1 13.6429 
3 *266:8 *1265:B2 10 
*END

*D_NET *267 0.000318823
*CONN
*I *1257:B2 I *D OAI22_X1
*I *960:ZN O *D INV_X1
*CAP
1 *1257:B2 0.000138647
2 *960:ZN 0.000138647
3 *1257:B2 *1412:CK 1.11194e-05
4 *1257:B2 *777:12 0
5 *1257:B2 *844:34 1.07146e-05
6 *1257:B2 *844:45 1.32183e-05
7 *1257:B2 *844:52 6.47615e-06
*RES
1 *960:ZN *1257:B2 34.4286 
*END

*D_NET *268 0.000278561
*CONN
*I *1266:B2 I *D OAI22_X1
*I *1131:C1 I *D OAI211_X1
*I *961:ZN O *D INV_X1
*CAP
1 *1266:B2 0
2 *1131:C1 5.05533e-05
3 *961:ZN 3.81273e-05
4 *268:8 8.86806e-05
5 *1131:C1 *1086:A 0
6 *1131:C1 *1131:A 4.9192e-06
7 *1131:C1 *1131:B 3.34352e-06
8 *1131:C1 *1430:CK 0
9 *268:8 *961:A 0
10 *268:8 *1131:B 1.95562e-06
11 *268:8 *1266:A1 6.68482e-05
12 *268:8 *1430:CK 0
13 *268:8 *498:38 2.41337e-05
*RES
1 *961:ZN *268:8 15.6786 
2 *268:8 *1131:C1 15 
3 *268:8 *1266:B2 10 
*END

*D_NET *269 0.000279424
*CONN
*I *1258:B2 I *D OAI22_X1
*I *962:ZN O *D INV_X1
*CAP
1 *1258:B2 0.000119127
2 *962:ZN 0.000119127
3 *1258:B2 *1258:B1 7.72537e-06
4 *1258:B2 *1283:A2 0
5 *1258:B2 *1413:CK 1.01818e-05
6 *1258:B2 *1437:CK 1.25189e-05
7 *1258:B2 *476:275 2.14856e-06
8 *1258:B2 *776:10 0
9 *1437:D *1258:B2 8.5943e-06
*RES
1 *962:ZN *1258:B2 32.1429 
*END

*D_NET *270 0.00036734
*CONN
*I *1146:C1 I *D OAI211_X1
*I *1267:B2 I *D OAI22_X1
*I *963:ZN O *D INV_X1
*CAP
1 *1146:C1 7.00515e-05
2 *1267:B2 1.051e-05
3 *963:ZN 4.73419e-05
4 *270:10 0.000127903
5 *1146:C1 *1146:A 1.69812e-05
6 *1146:C1 *447:10 0
7 *1146:C1 *497:8 0
8 *1146:C1 *498:53 3.85541e-05
9 *1267:B2 *1265:B1 2.39679e-06
10 *1267:B2 *498:53 1.0303e-05
11 *270:10 *963:A 2.61812e-06
12 *270:10 *1265:A2 1.04526e-05
13 *270:10 *497:8 3.0227e-05
*RES
1 *963:ZN *270:10 20.6786 
2 *270:10 *1267:B2 6.25 
3 *270:10 *1146:C1 23.0714 
*END

*D_NET *271 0.00016716
*CONN
*I *1259:B2 I *D OAI22_X1
*I *964:ZN O *D INV_X1
*CAP
1 *1259:B2 5.4253e-05
2 *964:ZN 5.4253e-05
3 *1259:B2 *1152:A1 1.13319e-05
4 *1259:B2 *496:57 3.23723e-07
5 *1259:B2 *496:71 6.32202e-06
6 *1259:B2 *496:103 2.16603e-05
7 *1259:B2 *501:80 1.46241e-05
8 *1436:D *1259:B2 4.39188e-06
*RES
1 *964:ZN *1259:B2 26.8929 
*END

*D_NET *272 0.000357275
*CONN
*I *1268:B2 I *D OAI22_X1
*I *1153:C1 I *D OAI211_X1
*I *965:ZN O *D INV_X1
*CAP
1 *1268:B2 0
2 *1153:C1 0.000101047
3 *965:ZN 5.09093e-05
4 *272:8 0.000151956
5 *1153:C1 *1153:A 2.16579e-05
6 *1153:C1 *1153:B 4.73284e-06
7 *1153:C1 *521:22 1.02676e-05
8 *1153:C1 *828:392 0
9 *272:8 *521:22 1.67036e-05
*RES
1 *965:ZN *272:8 15.6786 
2 *272:8 *1153:C1 21 
3 *272:8 *1268:B2 10 
*END

*D_NET *273 0.0002906
*CONN
*I *1234:B2 I *D OAI22_X1
*I *966:ZN O *D INV_X1
*CAP
1 *1234:B2 0.000107834
2 *966:ZN 0.000107834
3 *1234:B2 *1456:CK 4.00689e-05
4 *1234:B2 *765:10 0
5 *1234:B2 *840:43 1.78252e-06
6 *1458:D *1234:B2 3.30815e-05
*RES
1 *966:ZN *1234:B2 32.4643 
*END

*D_NET *274 0.00011756
*CONN
*I *1243:B2 I *D OAI22_X1
*I *967:ZN O *D INV_X1
*CAP
1 *1243:B2 5.00111e-05
2 *967:ZN 5.00111e-05
3 *1243:B2 *967:A 0
4 *1243:B2 *474:60 1.75374e-05
*RES
1 *967:ZN *1243:B2 25.6786 
*END

*D_NET *275 0.000197413
*CONN
*I *1235:B2 I *D OAI22_X1
*I *968:ZN O *D INV_X1
*CAP
1 *1235:B2 8.24922e-05
2 *968:ZN 8.24922e-05
3 *1235:B2 *1226:A1 3.57502e-06
4 *1235:B2 *1349:A2 8.43215e-07
5 *1235:B2 *491:26 1.5896e-05
6 *1235:B2 *491:45 0
7 *1235:B2 *491:58 3.52786e-06
8 *1457:D *1235:B2 8.58686e-06
*RES
1 *968:ZN *1235:B2 28.3214 
*END

*D_NET *276 0.000177957
*CONN
*I *1244:B2 I *D OAI22_X1
*I *969:ZN O *D INV_X1
*CAP
1 *1244:B2 6.67138e-05
2 *969:ZN 6.67138e-05
3 *1244:B2 *969:A 3.49085e-06
4 *1244:B2 *1217:B2 0
5 *1244:B2 *1244:B1 2.75346e-06
6 *1244:B2 *487:44 0
7 *1244:B2 *839:22 0
8 *1449:D *1244:B2 4.88118e-06
9 *1473:D *1244:B2 3.34038e-05
*RES
1 *969:ZN *1244:B2 27.5714 
*END

*D_NET *277 0.000512525
*CONN
*I *1236:B2 I *D OAI22_X1
*I *970:ZN O *D INV_X1
*CAP
1 *1236:B2 0.000193889
2 *970:ZN 0.000193889
3 *1236:B2 *1233:A1 1.37673e-05
4 *1236:B2 *1234:B1 4.55949e-09
5 *1236:B2 *1236:A1 2.26306e-06
6 *1236:B2 *491:10 5.90424e-05
7 *1236:B2 *491:16 1.30207e-05
8 *1236:B2 *491:26 8.43215e-07
9 *1236:B2 *763:12 1.25127e-05
10 *1236:B2 *828:89 2.87703e-06
11 *1456:D *1236:B2 2.04163e-05
*RES
1 *970:ZN *1236:B2 42.7143 
*END

*D_NET *278 0.000101678
*CONN
*I *1245:B2 I *D OAI22_X1
*I *971:ZN O *D INV_X1
*CAP
1 *1245:B2 3.87373e-05
2 *971:ZN 3.87373e-05
3 *1245:B2 *1218:A1 0
4 *1245:B2 *1245:A1 5.74094e-06
5 *1245:B2 *1245:B1 2.75346e-06
6 *1245:B2 *1247:B1 0
7 *1245:B2 *1472:CK 0
8 *1245:B2 *839:57 1.57087e-05
*RES
1 *971:ZN *1245:B2 14.6786 
*END

*D_NET *279 0.00027299
*CONN
*I *1237:B2 I *D OAI22_X1
*I *972:ZN O *D INV_X1
*CAP
1 *1237:B2 0.000101003
2 *972:ZN 0.000101003
3 *1237:B2 *972:A 4.12911e-06
4 *1237:B2 *1237:B1 2.75346e-06
5 *1237:B2 *411:30 6.21255e-06
6 *1237:B2 *823:136 3.89989e-05
7 *1455:D *1237:B2 1.88906e-05
*RES
1 *972:ZN *1237:B2 33.0714 
*END

*D_NET *280 0.000319891
*CONN
*I *1246:B2 I *D OAI22_X1
*I *973:ZN O *D INV_X1
*CAP
1 *1246:B2 6.76846e-05
2 *973:ZN 6.76846e-05
3 *1246:B2 *973:A 2.84765e-06
4 *1246:B2 *1219:B1 4.56876e-05
5 *1246:B2 *1219:B2 1.17688e-05
6 *1246:B2 *1246:B1 3.83757e-05
7 *1246:B2 *837:30 8.09132e-05
8 *1471:D *1246:B2 4.92863e-06
*RES
1 *973:ZN *1246:B2 30.6071 
*END

*D_NET *281 0.000281342
*CONN
*I *1125:C1 I *D OAI221_X1
*I *1238:B2 I *D OAI22_X1
*I *974:ZN O *D INV_X1
*CAP
1 *1125:C1 0
2 *1238:B2 5.78533e-05
3 *974:ZN 3.38141e-05
4 *281:10 9.16675e-05
5 *1238:B2 *1125:A 7.16188e-07
6 *1238:B2 *1125:B1 1.38854e-05
7 *1238:B2 *1238:B1 2.39679e-06
8 *1238:B2 *1452:CK 0
9 *281:10 *1132:A2 2.3823e-05
10 *1454:D *1238:B2 5.71856e-05
*RES
1 *974:ZN *281:10 18.6429 
2 *281:10 *1238:B2 12.9643 
3 *281:10 *1125:C1 5 
*END

*D_NET *282 0.000404217
*CONN
*I *1247:B2 I *D OAI22_X1
*I *975:ZN O *D INV_X1
*CAP
1 *1247:B2 0.000105101
2 *975:ZN 0.000105101
3 *1247:B2 *1220:B2 0
4 *1247:B2 *1247:B1 2.75346e-06
5 *1247:B2 *745:8 0
6 *1247:B2 *769:10 0
7 *1247:B2 *839:35 4.21903e-05
8 *1247:B2 *839:42 4.56266e-05
9 *1247:B2 *839:57 6.11168e-05
10 *1446:D *1247:B2 4.23272e-05
*RES
1 *975:ZN *1247:B2 25.8571 
*END

*D_NET *283 0.000272687
*CONN
*I *1140:C1 I *D OAI221_X1
*I *1239:B2 I *D OAI22_X1
*I *976:ZN O *D INV_X1
*CAP
1 *1140:C1 4.70652e-05
2 *1239:B2 1.51448e-05
3 *976:ZN 4.52177e-05
4 *283:8 0.000107428
5 *1140:C1 *1140:A 1.07746e-05
6 *1140:C1 *1140:B2 3.83453e-06
7 *1140:C1 *1237:B1 8.62199e-06
8 *1140:C1 *1239:B1 2.39679e-06
9 *1239:B2 *1140:A 7.66675e-07
10 *1239:B2 *491:58 6.32202e-06
11 *1239:B2 *491:69 4.12796e-06
12 *283:8 *1237:B1 1.46625e-05
13 *283:8 *491:69 6.32461e-06
*RES
1 *976:ZN *283:8 15 
2 *283:8 *1239:B2 11.6071 
3 *283:8 *1140:C1 15.6786 
*END

*D_NET *284 0.000372893
*CONN
*I *1248:B2 I *D OAI22_X1
*I *977:ZN O *D INV_X1
*CAP
1 *1248:B2 0.000104988
2 *977:ZN 0.000104988
3 *1248:B2 *1244:B1 2.39679e-06
4 *1248:B2 *1445:CK 4.44925e-05
5 *1248:B2 *487:57 8.36943e-05
6 *1248:B2 *493:68 1.16751e-05
7 *1248:B2 *837:18 1.76665e-06
8 *1248:B2 *837:20 1.88906e-05
*RES
1 *977:ZN *1248:B2 25.4286 
*END

*D_NET *285 0.00036134
*CONN
*I *1157:C1 I *D OAI221_X1
*I *1240:B2 I *D OAI22_X1
*I *978:ZN O *D INV_X1
*CAP
1 *1157:C1 0
2 *1240:B2 5.42331e-05
3 *978:ZN 4.27953e-05
4 *285:10 9.70284e-05
5 *1240:B2 *1125:B1 7.16188e-07
6 *1240:B2 *1238:B1 3.96392e-05
7 *1240:B2 *491:73 2.75346e-06
8 *1240:B2 *823:142 0
9 *1240:B2 *823:187 4.01666e-06
10 *285:10 *978:A 0
11 *285:10 *458:12 0.000120158
*RES
1 *978:ZN *285:10 21.3571 
2 *285:10 *1240:B2 11.6786 
3 *285:10 *1157:C1 5 
*END

*D_NET *286 0.000124996
*CONN
*I *1249:B2 I *D OAI22_X1
*I *979:ZN O *D INV_X1
*CAP
1 *1249:B2 5.21324e-05
2 *979:ZN 5.21324e-05
3 *1249:B2 *979:A 3.49085e-06
4 *1249:B2 *383:10 0
5 *1249:B2 *493:60 1.72405e-05
*RES
1 *979:ZN *1249:B2 25.6786 
*END

*D_NET *287 0.000194163
*CONN
*I *1216:B2 I *D OAI22_X1
*I *980:ZN O *D INV_X1
*CAP
1 *1216:B2 6.04496e-05
2 *980:ZN 6.04496e-05
3 *1216:B2 *1242:A1 3.87196e-05
4 *1216:B2 *839:102 3.35822e-05
5 *1474:D *1216:B2 9.62051e-07
*RES
1 *980:ZN *1216:B2 27.5714 
*END

*D_NET *288 0.000479719
*CONN
*I *1067:C1 I *D OAI211_X1
*I *1225:B2 I *D OAI22_X1
*I *981:ZN O *D INV_X1
*CAP
1 *1067:C1 0.000140858
2 *1225:B2 4.15055e-05
3 *981:ZN 4.1547e-05
4 *288:6 0.00022391
5 *1067:C1 *374:8 1.77822e-05
6 *1067:C1 *839:102 0
7 *1225:B2 *397:10 1.08031e-05
8 *288:6 *1225:B1 0
9 *288:6 *827:23 1.07428e-06
10 *1466:D *288:6 2.23871e-06
*RES
1 *981:ZN *288:6 8.75 
2 *288:6 *1225:B2 19.3214 
3 *288:6 *1067:C1 30.1786 
*END

*D_NET *289 0.0001861
*CONN
*I *1217:B2 I *D OAI22_X1
*I *982:ZN O *D INV_X1
*CAP
1 *1217:B2 5.00748e-05
2 *982:ZN 5.00748e-05
3 *1217:B2 *982:A 3.09682e-06
4 *1217:B2 *1244:A1 3.83783e-05
5 *1217:B2 *473:213 0
6 *1217:B2 *487:44 3.89036e-05
7 *1244:B2 *1217:B2 0
8 *1473:D *1217:B2 5.57182e-06
*RES
1 *982:ZN *1217:B2 26.7143 
*END

*D_NET *290 0.000397491
*CONN
*I *1078:C1 I *D OAI211_X1
*I *1226:B2 I *D OAI22_X1
*I *983:ZN O *D INV_X1
*CAP
1 *1078:C1 8.58672e-05
2 *1226:B2 5.85272e-05
3 *983:ZN 0
4 *290:4 0.000144394
5 *1078:C1 *1078:B 1.21774e-06
6 *1078:C1 *1078:C2 2.75346e-06
7 *1078:C1 *1226:B1 0
8 *1078:C1 *491:26 1.00571e-05
9 *1078:C1 *837:10 0
10 *1226:B2 *983:A 3.26949e-06
11 *1226:B2 *1226:A1 0
12 *1226:B2 *1226:B1 0
13 *1226:B2 *473:207 3.91587e-05
14 *1226:B2 *491:26 3.09411e-06
15 *1457:D *1078:C1 1.64551e-05
16 *1457:D *1226:B2 1.91954e-06
17 *1465:D *1226:B2 3.07768e-05
*RES
1 *983:ZN *290:4 5 
2 *290:4 *1226:B2 22.9286 
3 *290:4 *1078:C1 14.8571 
*END

*D_NET *291 0.00040892
*CONN
*I *1218:B2 I *D OAI22_X1
*I *984:ZN O *D INV_X1
*CAP
1 *1218:B2 0.000126453
2 *984:ZN 0.000126453
3 *1218:B2 *971:A 0
4 *1218:B2 *1218:A1 0.000113162
5 *1218:B2 *1218:B1 8.77866e-06
6 *1218:B2 *1472:CK 1.11753e-05
7 *1218:B2 *839:57 0
8 *1472:D *1218:B2 2.28988e-05
*RES
1 *984:ZN *1218:B2 36.4643 
*END

*D_NET *292 0.000639748
*CONN
*I *1093:C1 I *D OAI211_X1
*I *1227:B2 I *D OAI22_X1
*I *985:ZN O *D INV_X1
*CAP
1 *1093:C1 0.000118076
2 *1227:B2 0.000107825
3 *985:ZN 0
4 *292:6 0.000225901
5 *1093:C1 *1093:A 1.87418e-05
6 *1093:C1 *823:154 7.96507e-06
7 *1227:B2 *1227:B1 2.8946e-05
8 *1227:B2 *1468:CK 0
9 *1227:B2 *489:20 6.21078e-05
10 *1227:B2 *827:12 5.08198e-06
11 *1227:B2 *839:12 1.26998e-05
12 *1227:B2 *839:89 3.85541e-05
13 *1227:B2 *839:93 1.26173e-05
14 *1464:D *1227:B2 1.23214e-06
*RES
1 *985:ZN *292:6 10 
2 *292:6 *1227:B2 23.75 
3 *292:6 *1093:C1 23.5357 
*END

*D_NET *293 0.000143612
*CONN
*I *1219:B2 I *D OAI22_X1
*I *986:ZN O *D INV_X1
*CAP
1 *1219:B2 5.51221e-05
2 *986:ZN 5.51221e-05
3 *1219:B2 *1107:B2 0
4 *1219:B2 *1219:B1 2.15993e-05
5 *1246:B2 *1219:B2 1.17688e-05
*RES
1 *986:ZN *1219:B2 16.7143 
*END

*D_NET *294 0.000423548
*CONN
*I *1108:C1 I *D OAI211_X1
*I *1228:B2 I *D OAI22_X1
*I *987:ZN O *D INV_X1
*CAP
1 *1108:C1 5.81511e-05
2 *1228:B2 8.26297e-05
3 *987:ZN 0
4 *294:6 0.000140781
5 *1108:C1 *1108:A 6.74466e-06
6 *1108:C1 *1118:B2 4.4596e-05
7 *1108:C1 *1326:C2 6.51363e-07
8 *1108:C1 *823:114 2.28957e-06
9 *1108:C1 *823:129 6.05817e-05
10 *1108:C1 *823:136 2.39679e-06
11 *1228:B2 *1326:C2 2.47268e-05
*RES
1 *987:ZN *294:6 10 
2 *294:6 *1228:B2 19.0714 
3 *294:6 *1108:C1 18.2857 
*END

*D_NET *295 0.000157337
*CONN
*I *1220:B2 I *D OAI22_X1
*I *988:ZN O *D INV_X1
*CAP
1 *1220:B2 6.10358e-05
2 *988:ZN 6.10358e-05
3 *1220:B2 *1124:B2 0
4 *1220:B2 *487:87 2.39679e-06
5 *1220:B2 *839:35 3.28688e-05
6 *1247:B2 *1220:B2 0
*RES
1 *988:ZN *1220:B2 16.8929 
*END

*D_NET *296 0.000248888
*CONN
*I *1125:B2 I *D OAI221_X1
*I *1229:B2 I *D OAI22_X1
*I *989:ZN O *D INV_X1
*CAP
1 *1125:B2 2.05345e-05
2 *1229:B2 8.24273e-05
3 *989:ZN 0
4 *296:6 0.000102962
5 *1125:B2 *1238:A1 0
6 *1229:B2 *1238:A1 0
7 *1229:B2 *476:77 4.29646e-05
*RES
1 *989:ZN *296:6 10 
2 *296:6 *1229:B2 18.3929 
3 *296:6 *1125:B2 12.2857 
*END

*D_NET *297 0.000151411
*CONN
*I *1221:B2 I *D OAI22_X1
*I *990:ZN O *D INV_X1
*CAP
1 *1221:B2 4.47415e-05
2 *990:ZN 4.47415e-05
3 *1221:B2 *977:A 7.47756e-06
4 *1221:B2 *990:A 4.12911e-06
5 *1221:B2 *1219:B1 2.75346e-06
6 *1221:B2 *487:57 3.01154e-05
7 *1221:B2 *837:20 1.32732e-05
8 *1469:D *1221:B2 4.17885e-06
*RES
1 *990:ZN *1221:B2 26.2143 
*END

*D_NET *298 0.000377274
*CONN
*I *1140:B2 I *D OAI221_X1
*I *1230:B2 I *D OAI22_X1
*I *991:ZN O *D INV_X1
*CAP
1 *1140:B2 4.87093e-05
2 *1230:B2 6.15165e-05
3 *991:ZN 0
4 *298:6 0.000110226
5 *1140:B2 *1140:A 2.00494e-05
6 *1140:B2 *1140:B1 2.75346e-06
7 *1140:B2 *1239:B1 2.16072e-07
8 *1140:B2 *491:58 2.06738e-05
9 *1140:B2 *823:142 4.93938e-05
10 *1230:B2 *1140:A 9.5934e-06
11 *1230:B2 *491:58 5.03084e-05
12 *1140:C1 *1140:B2 3.83453e-06
*RES
1 *991:ZN *298:6 10 
2 *298:6 *1230:B2 17.7143 
3 *298:6 *1140:B2 17.7143 
*END

*D_NET *299 0.00019978
*CONN
*I *1222:B2 I *D OAI22_X1
*I *992:ZN O *D INV_X1
*CAP
1 *1222:B2 3.76869e-05
2 *992:ZN 3.76869e-05
3 *1222:B2 *383:10 0.000107166
4 *1222:B2 *487:121 1.72405e-05
5 *1222:B2 *837:10 0
6 *1222:B2 *837:12 0
7 *1222:B2 *837:16 0
*RES
1 *992:ZN *1222:B2 25.6786 
*END

*D_NET *300 0.000445331
*CONN
*I *1157:B2 I *D OAI221_X1
*I *1231:B2 I *D OAI22_X1
*I *993:ZN O *D INV_X1
*CAP
1 *1157:B2 4.43531e-05
2 *1231:B2 4.85642e-05
3 *993:ZN 0
4 *300:6 9.29173e-05
5 *1157:B2 *457:8 0.000127961
6 *1231:B2 *457:8 0.000131535
*RES
1 *993:ZN *300:6 10 
2 *300:6 *1231:B2 17.0357 
3 *300:6 *1157:B2 17.0357 
*END

*D_NET *301 0.00101684
*CONN
*I *1196:B2 I *D OAI22_X1
*I *1063:C1 I *D OAI221_X1
*I *994:ZN O *D INV_X1
*CAP
1 *1196:B2 0
2 *1063:C1 0.000182562
3 *994:ZN 0.000150383
4 *301:12 0.000332945
5 *1063:C1 *1021:A 2.39679e-06
6 *1063:C1 *1063:A 7.16188e-07
7 *1063:C1 *1063:B2 0
8 *1063:C1 *1155:B2 7.54346e-06
9 *1063:C1 *1155:C1 0
10 *1063:C1 *1192:A1 6.81033e-07
11 *1063:C1 *1356:CK 0
12 *1063:C1 *328:8 6.71316e-06
13 *1063:C1 *455:10 0.000185381
14 *301:12 *994:A 3.81304e-05
15 *301:12 *1155:C1 0
16 *301:12 *1196:A2 1.48912e-05
17 *301:12 *313:10 0
18 *301:12 *833:51 2.14856e-06
19 *301:12 *833:60 2.56352e-05
20 *1484:D *301:12 6.67161e-05
*RES
1 *994:ZN *301:12 29.6786 
2 *301:12 *1063:C1 33.3214 
3 *301:12 *1196:B2 10 
*END

*D_NET *302 0.000298356
*CONN
*I *1206:B2 I *D OAI22_X1
*I *995:ZN O *D INV_X1
*CAP
1 *1206:B2 0.0001326
2 *995:ZN 0.0001326
3 *1206:B2 *995:A 2.03464e-05
4 *1206:B2 *1206:B1 2.75346e-06
5 *1206:B2 *1482:CK 0
6 *1482:D *1206:B2 1.00571e-05
*RES
1 *995:ZN *1206:B2 34.6786 
*END

*D_NET *303 0.000180909
*CONN
*I *1197:B2 I *D OAI22_X1
*I *996:ZN O *D INV_X1
*CAP
1 *1197:B2 6.52572e-05
2 *996:ZN 6.52572e-05
3 *1197:B2 *1081:A2 6.74466e-06
4 *1197:B2 *1197:B1 2.75346e-06
5 *1197:B2 *480:32 4.01666e-06
6 *1197:B2 *480:40 0
7 *1489:D *1197:B2 3.68801e-05
*RES
1 *996:ZN *1197:B2 18.1071 
*END

*D_NET *304 0.000337666
*CONN
*I *1207:B2 I *D OAI22_X1
*I *997:ZN O *D INV_X1
*CAP
1 *1207:B2 9.26794e-05
2 *997:ZN 9.26794e-05
3 *1207:B2 *1112:A1 7.81408e-06
4 *1207:B2 *1207:A1 1.72023e-05
5 *1207:B2 *1481:CK 0
6 *1207:B2 *365:87 1.40196e-05
7 *1207:B2 *483:32 9.07641e-05
8 *1207:B2 *484:12 7.72792e-06
9 *1207:B2 *831:8 3.65322e-06
10 *1481:D *1207:B2 1.11258e-05
*RES
1 *997:ZN *1207:B2 32.6429 
*END

*D_NET *305 0.000279502
*CONN
*I *1198:B2 I *D OAI22_X1
*I *998:ZN O *D INV_X1
*CAP
1 *1198:B2 8.42301e-05
2 *998:ZN 8.42301e-05
3 *1198:B2 *1096:A2 4.92863e-06
4 *1198:B2 *1198:A1 5.6046e-05
5 *1198:B2 *1198:B1 2.39679e-06
6 *1198:B2 *731:12 3.07441e-06
7 *1488:D *1198:B2 4.4596e-05
*RES
1 *998:ZN *1198:B2 30.5357 
*END

*D_NET *306 0.000220011
*CONN
*I *1208:B2 I *D OAI22_X1
*I *999:ZN O *D INV_X1
*CAP
1 *1208:B2 5.4319e-05
2 *999:ZN 5.4319e-05
3 *1208:B2 *1097:A1 0
4 *1208:B2 *474:258 4.18123e-05
5 *1208:B2 *483:18 3.35822e-05
6 *1208:B2 *483:20 2.39679e-06
7 *1208:B2 *832:47 3.35822e-05
*RES
1 *999:ZN *1208:B2 26.8929 
*END

*D_NET *307 0.000148773
*CONN
*I *1199:B2 I *D OAI22_X1
*I *1000:ZN O *D INV_X1
*CAP
1 *1199:B2 5.12464e-05
2 *1000:ZN 5.12464e-05
3 *1199:B2 *1199:B1 2.75346e-06
4 *1199:B2 *480:14 0
5 *1199:B2 *481:69 0
6 *1199:B2 *730:10 3.01743e-06
7 *1199:B2 *730:16 6.50827e-06
8 *1487:D *1199:B2 3.40013e-05
*RES
1 *1000:ZN *1199:B2 26.0357 
*END

*D_NET *308 0.000137336
*CONN
*I *1209:B2 I *D OAI22_X1
*I *1001:ZN O *D INV_X1
*CAP
1 *1209:B2 5.9082e-05
2 *1001:ZN 5.9082e-05
3 *1209:B2 *1097:A1 1.91716e-05
*RES
1 *1001:ZN *1209:B2 25.6786 
*END

*D_NET *309 0.000182853
*CONN
*I *1200:B2 I *D OAI22_X1
*I *1002:ZN O *D INV_X1
*CAP
1 *1200:B2 4.77814e-05
2 *1002:ZN 4.77814e-05
3 *1200:B2 *1200:B1 2.39679e-06
4 *1200:B2 *476:163 0
5 *1200:B2 *476:172 0
6 *1200:B2 *480:72 2.87248e-06
7 *1200:B2 *481:29 3.90865e-05
8 *1200:B2 *851:111 2.03657e-05
9 *1486:D *1200:B2 2.25683e-05
*RES
1 *1002:ZN *1200:B2 26.7143 
*END

*D_NET *310 0.000253461
*CONN
*I *1210:B2 I *D OAI22_X1
*I *1003:ZN O *D INV_X1
*CAP
1 *1210:B2 6.06782e-05
2 *1003:ZN 6.06782e-05
3 *1210:B2 *1062:A1 3.81615e-06
4 *1210:B2 *1210:A1 2.96179e-06
5 *1210:B2 *1210:B1 2.39679e-06
6 *1210:B2 *1477:CK 4.31719e-05
7 *1210:B2 *483:52 5.62801e-05
8 *1210:B2 *483:69 1.2453e-05
9 *1210:B2 *484:76 1.1025e-05
*RES
1 *1003:ZN *1210:B2 28.6429 
*END

*D_NET *311 0.000295088
*CONN
*I *1201:B2 I *D OAI22_X1
*I *1004:ZN O *D INV_X1
*CAP
1 *1201:B2 9.5971e-05
2 *1004:ZN 9.5971e-05
3 *1201:B2 *1126:A2 0
4 *1201:B2 *1141:A2 7.65279e-06
5 *1201:B2 *481:21 8.97219e-05
6 *1201:B2 *481:25 2.75346e-06
7 *1201:B2 *728:10 3.01743e-06
8 *1201:B2 *851:113 0
*RES
1 *1004:ZN *1201:B2 31.7143 
*END

*D_NET *312 0.000249981
*CONN
*I *1211:B2 I *D OAI22_X1
*I *1005:ZN O *D INV_X1
*CAP
1 *1211:B2 5.22012e-05
2 *1005:ZN 5.22012e-05
3 *1211:B2 *1142:A1 7.98408e-05
4 *1211:B2 *1142:B2 3.28688e-05
5 *1211:B2 *1477:CK 3.28688e-05
*RES
1 *1005:ZN *1211:B2 27.5714 
*END

*D_NET *313 0.000362003
*CONN
*I *1202:B2 I *D OAI22_X1
*I *1155:C1 I *D OAI221_X1
*I *1006:ZN O *D INV_X1
*CAP
1 *1202:B2 0
2 *1155:C1 8.36115e-05
3 *1006:ZN 9.06609e-05
4 *313:10 0.000174272
5 *313:10 *1006:A 0
6 *313:10 *1196:A2 0
7 *313:10 *833:60 1.34578e-05
8 *1063:C1 *1155:C1 0
9 *301:12 *1155:C1 0
10 *301:12 *313:10 0
*RES
1 *1006:ZN *313:10 18.9286 
2 *313:10 *1155:C1 19.0714 
3 *313:10 *1202:B2 10 
*END

*D_NET *314 0.000349338
*CONN
*I *1212:B2 I *D OAI22_X1
*I *1007:ZN O *D INV_X1
*CAP
1 *1212:B2 8.79053e-05
2 *1007:ZN 8.79053e-05
3 *1212:B2 *1154:A1 3.47175e-05
4 *1212:B2 *1206:A2 6.07779e-06
5 *1212:B2 *1206:B1 9.22996e-05
6 *1212:B2 *1212:B1 2.75346e-06
7 *1212:B2 *476:134 1.87885e-05
8 *1476:D *1212:B2 1.88906e-05
*RES
1 *1007:ZN *1212:B2 33.75 
*END

*D_NET *315 0.000138466
*CONN
*I *1169:B2 I *D OAI22_X1
*I *1008:ZN O *D INV_X1
*CAP
1 *1169:B2 5.71343e-05
2 *1008:ZN 5.71343e-05
3 *1169:B2 *1169:A1 1.65324e-05
4 *1169:B2 *1175:A1 3.48838e-06
5 *1370:D *1169:B2 4.177e-06
*RES
1 *1008:ZN *1169:B2 26.3571 
*END

*D_NET *316 0.000293329
*CONN
*I *1063:B2 I *D OAI221_X1
*I *1180:A1 I *D OAI22_X1
*I *1009:ZN O *D INV_X1
*CAP
1 *1063:B2 4.62104e-05
2 *1180:A1 5.04638e-05
3 *1009:ZN 0
4 *316:6 9.66742e-05
5 *1063:B2 *1063:B1 2.75346e-06
6 *1063:B2 *1192:A1 8.58925e-06
7 *1063:B2 *1356:CK 1.21523e-05
8 *1063:B2 *455:10 8.1183e-06
9 *1180:A1 *1180:A2 1.87392e-05
10 *1180:A1 *1180:B2 1.43238e-06
11 *1180:A1 *1192:A1 6.21255e-06
12 *1180:A1 *1356:CK 3.89891e-06
13 *1180:A1 *455:10 2.43171e-05
14 *1063:C1 *1063:B2 0
15 *1362:D *1180:A1 1.37673e-05
*RES
1 *1009:ZN *316:6 10 
2 *316:6 *1180:A1 17.4286 
3 *316:6 *1063:B2 15.5357 
*END

*D_NET *317 0.00020483
*CONN
*I *1170:B2 I *D OAI22_X1
*I *1010:ZN O *D INV_X1
*CAP
1 *1170:B2 7.53917e-05
2 *1010:ZN 7.53917e-05
3 *1170:B2 *1170:A1 4.24402e-05
4 *1369:D *1170:B2 1.16067e-05
*RES
1 *1010:ZN *1170:B2 28.3929 
*END

*D_NET *318 0.000292439
*CONN
*I *1083:C1 I *D OAI211_X1
*I *1182:A1 I *D OAI22_X1
*I *1011:ZN O *D INV_X1
*CAP
1 *1083:C1 3.08676e-05
2 *1182:A1 2.77571e-05
3 *1011:ZN 0
4 *318:6 5.86247e-05
5 *1083:C1 *1083:B 0
6 *1083:C1 *473:41 9.40137e-05
7 *1182:A1 *1083:B 0
8 *1182:A1 *473:41 8.11762e-05
*RES
1 *1011:ZN *318:6 10 
2 *318:6 *1182:A1 14.3214 
3 *318:6 *1083:C1 15 
*END

*D_NET *319 0.00039624
*CONN
*I *1171:B2 I *D OAI22_X1
*I *1012:ZN O *D INV_X1
*CAP
1 *1171:B2 0.000176824
2 *1012:ZN 0.000176824
3 *1171:B2 *1012:A 3.49085e-06
4 *1171:B2 *1171:B1 2.75346e-06
5 *1171:B2 *467:8 1.30994e-05
6 *1171:B2 *474:16 1.46266e-05
7 *1171:B2 *831:38 0
8 *1171:B2 *831:79 8.62199e-06
*RES
1 *1012:ZN *1171:B2 39.3572 
*END

*D_NET *320 0.000403924
*CONN
*I *1098:C1 I *D OAI211_X1
*I *1184:A1 I *D OAI22_X1
*I *1013:ZN O *D INV_X1
*CAP
1 *1098:C1 1.93627e-05
2 *1184:A1 6.33274e-05
3 *1013:ZN 3.36069e-05
4 *320:8 0.000116297
5 *1098:C1 *402:12 4.16485e-05
6 *1184:A1 *1184:A2 2.75346e-06
7 *1184:A1 *1184:B1 2.05797e-05
8 *1184:A1 *402:12 6.86795e-05
9 *1184:A1 *823:25 0
10 *320:8 *1184:B1 0
11 *320:8 *470:8 0
12 *320:8 *474:290 0
13 *320:8 *823:14 3.76691e-05
*RES
1 *1013:ZN *320:8 13.75 
2 *320:8 *1184:A1 18.3929 
3 *320:8 *1098:C1 12.2857 
*END

*D_NET *321 0.000215597
*CONN
*I *1172:B2 I *D OAI22_X1
*I *1014:ZN O *D INV_X1
*CAP
1 *1172:B2 5.91242e-05
2 *1014:ZN 5.91242e-05
3 *1172:B2 *1014:A 1.72426e-05
4 *1172:B2 *1171:B1 1.90574e-06
5 *1172:B2 *1172:A1 4.16464e-05
6 *1172:B2 *1172:A2 1.07633e-05
7 *1172:B2 *467:14 2.57909e-05
8 *1172:B2 *474:10 0
*RES
1 *1014:ZN *1172:B2 27.7143 
*END

*D_NET *322 0.000253347
*CONN
*I *1113:C1 I *D OAI211_X1
*I *1186:A1 I *D OAI22_X1
*I *1015:ZN O *D INV_X1
*CAP
1 *1113:C1 2.84497e-05
2 *1186:A1 2.55441e-05
3 *1015:ZN 0
4 *322:6 5.39937e-05
5 *1113:C1 *416:12 7.71783e-05
6 *1186:A1 *416:12 6.81816e-05
*RES
1 *1015:ZN *322:6 10 
2 *322:6 *1186:A1 13.6429 
3 *322:6 *1113:C1 14.3214 
*END

*D_NET *323 0.000418484
*CONN
*I *1173:B2 I *D OAI22_X1
*I *1016:ZN O *D INV_X1
*CAP
1 *1173:B2 0.000149859
2 *1016:ZN 0.000149859
3 *1173:B2 *1173:A1 0
4 *1173:B2 *468:26 0.000118767
5 *1032:A *1173:B2 0
*RES
1 *1016:ZN *1173:B2 37.6072 
*END

*D_NET *324 0.000408787
*CONN
*I *1128:C1 I *D OAI211_X1
*I *1188:A1 I *D OAI22_X1
*I *1017:ZN O *D INV_X1
*CAP
1 *1128:C1 5.83019e-05
2 *1188:A1 3.47821e-05
3 *1017:ZN 0
4 *324:6 9.3084e-05
5 *1128:C1 *1128:C2 3.33849e-05
6 *1128:C1 *476:161 5.62244e-05
7 *1128:C1 *476:163 0
8 *1128:C1 *823:52 1.46625e-05
9 *1188:A1 *430:10 0
10 *1188:A1 *476:161 0.000106374
11 *1188:A1 *823:52 1.04526e-05
12 *1188:A1 *830:37 1.52083e-06
*RES
1 *1017:ZN *324:6 10 
2 *324:6 *1188:A1 15.6786 
3 *324:6 *1128:C1 18.3929 
*END

*D_NET *325 0.000189663
*CONN
*I *1174:B2 I *D OAI22_X1
*I *1018:ZN O *D INV_X1
*CAP
1 *1174:B2 6.83852e-05
2 *1018:ZN 6.83852e-05
3 *1174:B2 *1174:A1 4.24402e-05
4 *1174:B2 *829:33 1.04526e-05
*RES
1 *1018:ZN *1174:B2 27.0357 
*END

*D_NET *326 0.000308413
*CONN
*I *1143:C1 I *D OAI211_X1
*I *1190:A1 I *D OAI22_X1
*I *1019:ZN O *D INV_X1
*CAP
1 *1143:C1 6.99272e-05
2 *1190:A1 6.37262e-05
3 *1019:ZN 0
4 *326:4 0.000133653
5 *1143:C1 *445:14 1.77822e-05
6 *1143:C1 *471:42 0
7 *1143:C1 *518:8 2.39022e-06
8 *1143:C1 *823:46 8.43215e-07
9 *1143:C1 *823:52 7.65847e-06
10 *1190:A1 *1019:A 2.39679e-06
11 *1190:A1 *444:8 4.33639e-06
12 *1190:A1 *471:42 0
13 *1190:A1 *823:52 5.69909e-06
*RES
1 *1019:ZN *326:4 5 
2 *326:4 *1190:A1 21.5714 
3 *326:4 *1143:C1 22.3929 
*END

*D_NET *327 0.000169807
*CONN
*I *1175:B2 I *D OAI22_X1
*I *1020:ZN O *D INV_X1
*CAP
1 *1175:B2 6.45743e-05
2 *1020:ZN 6.45743e-05
3 *1175:B2 *1020:A 1.72426e-05
4 *1175:B2 *1175:A1 0
5 *1175:B2 *476:117 2.21838e-05
6 *1370:D *1175:B2 1.23214e-06
*RES
1 *1020:ZN *1175:B2 27.0357 
*END

*D_NET *328 0.000579126
*CONN
*I *1155:B2 I *D OAI221_X1
*I *1192:A1 I *D OAI22_X1
*I *1021:ZN O *D INV_X1
*CAP
1 *1155:B2 7.31599e-05
2 *1192:A1 0.000137775
3 *1021:ZN 1.66394e-05
4 *328:8 0.000227575
5 *1155:B2 *1155:A 6.74733e-06
6 *1155:B2 *1155:B1 2.75346e-06
7 *1192:A1 *1009:A 2.39679e-06
8 *1192:A1 *1063:B1 0
9 *1192:A1 *1180:A2 0
10 *1192:A1 *1192:A2 7.72792e-06
11 *1192:A1 *1356:CK 1.67593e-05
12 *1192:A1 *370:10 2.42048e-06
13 *1192:A1 *455:10 0
14 *1063:B2 *1192:A1 8.58925e-06
15 *1063:C1 *1155:B2 7.54346e-06
16 *1063:C1 *1192:A1 6.81033e-07
17 *1063:C1 *328:8 6.71316e-06
18 *1180:A1 *1192:A1 6.21255e-06
19 *1356:D *1192:A1 5.54315e-05
*RES
1 *1021:ZN *328:8 11.75 
2 *328:8 *1192:A1 26.1429 
3 *328:8 *1155:B2 18.7857 
*END

*D_NET *329 0.000163414
*CONN
*I *1068:A1 I *D AND2_X1
*I *1064:A1 I *D NOR2_X1
*I *1022:ZN O *D INV_X1
*CAP
1 *1068:A1 8.15963e-06
2 *1064:A1 3.77162e-05
3 *1022:ZN 2.10982e-05
4 *329:8 6.69741e-05
5 *1068:A1 *1132:A2 0
6 *329:8 *1132:A2 0
7 *1068:A2 *1064:A1 2.02052e-05
8 *1068:A2 *1068:A1 0
9 *1068:A2 *329:8 0
10 *23:61 *1064:A1 8.62199e-06
11 *23:65 *1064:A1 6.38328e-07
12 *24:32 *329:8 0
*RES
1 *1022:ZN *329:8 12.2857 
2 *329:8 *1064:A1 14.75 
3 *329:8 *1068:A1 10.9286 
*END

*D_NET *331 0.000257232
*CONN
*I *1250:A2 I *D NAND4_X1
*I *1165:C2 I *D AOI211_X2
*I *1024:ZN O *D INV_X1
*CAP
1 *1250:A2 3.24728e-05
2 *1165:C2 6.7266e-05
3 *1024:ZN 9.97387e-05
4 *1165:C2 *1165:C1 3.23357e-05
5 *1165:C2 *365:71 9.52324e-06
6 *1250:A2 *365:67 0
7 *1250:A4 *1250:A2 1.5896e-05
8 *1287:A2 *1165:C2 0
*RES
1 *1024:ZN *1165:C2 28.4286 
2 *1024:ZN *1250:A2 13.75 
*END

*D_NET *333 0.0005995
*CONN
*I *1166:C1 I *D AOI211_X2
*I *1176:A3 I *D NAND4_X1
*I *1026:ZN O *D INV_X1
*CAP
1 *1166:C1 0.000137851
2 *1176:A3 6.11927e-05
3 *1026:ZN 1.34209e-05
4 *333:8 0.000212464
5 *1166:C1 *1166:C2 0.000159778
6 *1166:C1 *334:10 3.49085e-06
7 *1176:A3 *1166:C2 0
8 *1176:A3 *334:10 4.79658e-06
9 *333:8 *334:10 6.50581e-06
*RES
1 *1026:ZN *333:8 11.6071 
2 *333:8 *1176:A3 16.25 
3 *333:8 *1166:C1 28.0714 
*END

*D_NET *334 0.000633649
*CONN
*I *1166:C2 I *D AOI211_X2
*I *1193:A4 I *D NAND4_X1
*I *1027:ZN O *D INV_X1
*CAP
1 *1166:C2 0.000162705
2 *1193:A4 0
3 *1027:ZN 6.68344e-05
4 *334:10 0.000229539
5 *1166:C2 *1167:A3 0
6 *1166:C2 *831:79 0
7 *1166:C1 *1166:C2 0.000159778
8 *1166:C1 *334:10 3.49085e-06
9 *1176:A3 *1166:C2 0
10 *1176:A3 *334:10 4.79658e-06
11 *333:8 *334:10 6.50581e-06
*RES
1 *1027:ZN *334:10 16.8929 
2 *334:10 *1193:A4 10 
3 *334:10 *1166:C2 30.5714 
*END

*D_NET *335 0.000164325
*CONN
*I *1169:A1 I *D OAI22_X1
*I *1028:ZN O *D INV_X1
*CAP
1 *1169:A1 7.12257e-05
2 *1028:ZN 7.12257e-05
3 *1169:A1 *1169:A2 2.39679e-06
4 *1169:A1 *1169:B1 8.43215e-07
5 *1169:A1 *1175:A1 2.1015e-06
6 *1169:B2 *1169:A1 1.65324e-05
*RES
1 *1028:ZN *1169:A1 27.8214 
*END

*D_NET *336 0.000214912
*CONN
*I *1170:A1 I *D OAI22_X1
*I *1029:ZN O *D INV_X1
*CAP
1 *1170:A1 8.09543e-05
2 *1029:ZN 8.09543e-05
3 *1170:A1 *467:29 4.79358e-06
4 *1170:A1 *467:35 2.39679e-06
5 *1170:A1 *468:63 8.43215e-07
6 *1170:A1 *468:74 2.52965e-06
7 *1170:B2 *1170:A1 4.24402e-05
*RES
1 *1029:ZN *1170:A1 29.1429 
*END

*D_NET *337 0.000275283
*CONN
*I *1171:A1 I *D OAI22_X1
*I *1030:ZN O *D INV_X1
*CAP
1 *1171:A1 8.56581e-05
2 *1030:ZN 8.56581e-05
3 *1171:A1 *1171:B1 3.09411e-06
4 *1171:A1 *467:14 7.72792e-06
5 *1171:A1 *474:10 8.68231e-05
6 *1171:A1 *831:38 0
7 *1171:A1 *831:40 0
8 *1368:D *1171:A1 6.32202e-06
*RES
1 *1030:ZN *1171:A1 32.5357 
*END

*D_NET *338 0.000285165
*CONN
*I *1172:A1 I *D OAI22_X1
*I *1031:ZN O *D INV_X1
*CAP
1 *1172:A1 7.62864e-05
2 *1031:ZN 7.62864e-05
3 *1172:A1 *1171:B1 1.04526e-05
4 *1172:A1 *1172:A2 7.19036e-06
5 *1172:A1 *1172:B1 1.68643e-06
6 *1172:A1 *411:12 6.92191e-05
7 *1172:A1 *474:10 0
8 *1172:B2 *1172:A1 4.16464e-05
9 *1367:D *1172:A1 2.39679e-06
*RES
1 *1031:ZN *1172:A1 30.5 
*END

*D_NET *339 0.000383943
*CONN
*I *1173:A1 I *D OAI22_X1
*I *1032:ZN O *D INV_X1
*CAP
1 *1173:A1 0.000140509
2 *1032:ZN 0.000140509
3 *1173:A1 *467:62 3.85541e-05
4 *1173:A1 *468:16 8.43215e-07
5 *1173:A1 *468:26 1.87369e-06
6 *1173:A1 *829:41 0
7 *1032:A *1173:A1 2.80727e-05
8 *1173:B2 *1173:A1 0
9 *1187:A1 *1173:A1 0
10 *1366:D *1173:A1 3.35822e-05
*RES
1 *1032:ZN *1173:A1 35.5357 
*END

*D_NET *340 0.0001708
*CONN
*I *1174:A1 I *D OAI22_X1
*I *1033:ZN O *D INV_X1
*CAP
1 *1174:A1 6.04519e-05
2 *1033:ZN 6.04519e-05
3 *1174:A1 *467:48 1.68643e-06
4 *1174:A1 *467:52 2.39679e-06
5 *1174:A1 *468:10 2.52965e-06
6 *1174:A1 *468:16 8.43215e-07
7 *1174:B2 *1174:A1 4.24402e-05
*RES
1 *1033:ZN *1174:A1 27.1071 
*END

*D_NET *341 0.00016678
*CONN
*I *1175:A1 I *D OAI22_X1
*I *1034:ZN O *D INV_X1
*CAP
1 *1175:A1 6.1721e-05
2 *1034:ZN 6.1721e-05
3 *1175:A1 *1169:A2 1.20772e-05
4 *1175:A1 *1169:B1 1.53342e-05
5 *1175:A1 *467:62 2.39679e-06
6 *1175:A1 *468:26 8.43215e-07
7 *1169:A1 *1175:A1 2.1015e-06
8 *1169:B2 *1175:A1 3.48838e-06
9 *1175:B2 *1175:A1 0
10 *1370:D *1175:A1 7.09666e-06
*RES
1 *1034:ZN *1175:A1 27.3929 
*END

*D_NET *342 0.000433196
*CONN
*I *1341:A1 I *D OAI22_X1
*I *1328:C1 I *D OAI221_X1
*I *1035:ZN O *D INV_X1
*CAP
1 *1341:A1 0
2 *1328:C1 0.000127598
3 *1035:ZN 4.24786e-05
4 *342:8 0.000170076
5 *1328:C1 *1038:A 1.79588e-05
6 *1328:C1 *1080:A 0
7 *1328:C1 *1328:B2 0
8 *1328:C1 *515:12 7.16188e-07
9 *1328:C1 *825:82 1.3604e-05
10 *342:8 *1035:A 0
11 *1395:D *1328:C1 1.77822e-05
12 *1395:D *342:8 4.29819e-05
*RES
1 *1035:ZN *342:8 15 
2 *342:8 *1328:C1 23.4643 
3 *342:8 *1341:A1 10 
*END

*D_NET *343 0.00014493
*CONN
*I *1340:A1 I *D OAI22_X1
*I *1036:ZN O *D INV_X1
*CAP
1 *1340:A1 5.52232e-05
2 *1036:ZN 5.52232e-05
3 *1340:A1 *1036:A 1.72426e-05
4 *1340:A1 *1340:A2 1.72405e-05
*RES
1 *1036:ZN *1340:A1 26.3571 
*END

*D_NET *344 0.000123243
*CONN
*I *1343:A1 I *D OAI22_X1
*I *1037:ZN O *D INV_X1
*CAP
1 *1343:A1 5.48914e-05
2 *1037:ZN 5.48914e-05
3 *1343:A1 *1327:A1 0
4 *1343:A1 *1343:A2 1.34605e-05
*RES
1 *1037:ZN *1343:A1 25.5357 
*END

*D_NET *345 0.000255494
*CONN
*I *1328:B2 I *D OAI221_X1
*I *1342:A1 I *D OAI22_X1
*I *1038:ZN O *D INV_X1
*CAP
1 *1328:B2 3.82328e-05
2 *1342:A1 6.68115e-05
3 *1038:ZN 2.05452e-05
4 *345:8 0.00012559
5 *1328:B2 *515:12 1.21774e-06
6 *1342:A1 *1038:A 0
7 *1342:A1 *516:10 0
8 *1342:A1 *516:12 0
9 *345:8 *1038:A 3.09682e-06
10 *345:8 *516:10 0
11 *1328:C1 *1328:B2 0
*RES
1 *1038:ZN *345:8 12.2857 
2 *345:8 *1342:A1 17.25 
3 *345:8 *1328:B2 13.75 
*END

*D_NET *346 0.000137994
*CONN
*I *1345:A1 I *D OAI22_X1
*I *1039:ZN O *D INV_X1
*CAP
1 *1345:A1 2.65647e-05
2 *1039:ZN 2.65647e-05
3 *1345:A1 *1039:A 1.72426e-05
4 *1345:A1 *499:46 2.99551e-05
5 *1345:A1 *522:8 3.76667e-05
6 *1277:B2 *1345:A1 0
*RES
1 *1039:ZN *1345:A1 25 
*END

*D_NET *347 8.48249e-05
*CONN
*I *1344:A1 I *D OAI22_X1
*I *1040:ZN O *D INV_X1
*CAP
1 *1344:A1 2.98465e-05
2 *1040:ZN 2.98465e-05
3 *1344:A1 *1333:B2 2.06764e-05
4 *1344:A1 *686:10 4.45555e-06
*RES
1 *1040:ZN *1344:A1 23.6429 
*END

*D_NET *348 8.83553e-05
*CONN
*I *1347:A1 I *D OAI22_X1
*I *1041:ZN O *D INV_X1
*CAP
1 *1347:A1 3.23139e-05
2 *1041:ZN 3.23139e-05
3 *1347:A1 *1443:CK 0
4 *1347:A1 *496:103 5.9764e-06
5 *1347:A1 *521:20 1.77511e-05
6 *1347:A1 *686:10 0
*RES
1 *1041:ZN *1347:A1 23.6429 
*END

*D_NET *349 0.000268651
*CONN
*I *1346:A1 I *D OAI22_X1
*I *1334:C1 I *D OAI211_X1
*I *1042:ZN O *D INV_X1
*CAP
1 *1346:A1 0
2 *1334:C1 4.32711e-05
3 *1042:ZN 3.14928e-05
4 *349:8 7.47639e-05
5 *1334:C1 *1334:A 1.72405e-05
6 *1334:C1 *453:10 0
7 *1334:C1 *497:27 4.32319e-05
8 *1334:C1 *521:22 1.67075e-05
9 *349:8 *1042:A 8.72715e-07
10 *349:8 *453:10 0
11 *349:8 *497:27 2.4656e-05
12 *349:8 *521:22 1.64143e-05
*RES
1 *1042:ZN *349:8 14.3214 
2 *349:8 *1334:C1 15.6786 
3 *349:8 *1346:A1 10 
*END

*D_NET *350 9.72441e-05
*CONN
*I *1349:A1 I *D OAI22_X1
*I *1043:ZN O *D INV_X1
*CAP
1 *1349:A1 3.58446e-05
2 *1043:ZN 3.58446e-05
3 *1349:A1 *1324:A3 3.12145e-06
4 *1349:A1 *1349:A2 1.72405e-05
5 *1349:A1 *513:16 7.54367e-07
6 *1349:A1 *766:12 0
7 *1467:D *1349:A1 4.43868e-06
*RES
1 *1043:ZN *1349:A1 23.6429 
*END

*D_NET *351 0.000100768
*CONN
*I *1348:A1 I *D OAI22_X1
*I *1044:ZN O *D INV_X1
*CAP
1 *1348:A1 4.17629e-05
2 *1044:ZN 4.17629e-05
3 *1348:A1 *1044:A 1.72426e-05
4 *1348:A1 *493:89 0
*RES
1 *1044:ZN *1348:A1 23.6429 
*END

*D_NET *352 0.000590186
*CONN
*I *1351:A1 I *D OAI22_X1
*I *1045:ZN O *D INV_X1
*CAP
1 *1351:A1 0.000169563
2 *1045:ZN 0.000169563
3 *1351:A1 *1044:A 6.48216e-07
4 *1351:A1 *1045:A 2.25658e-05
5 *1351:A1 *1475:CK 1.88398e-05
6 *1351:A1 *365:46 0.000197831
7 *1351:A1 *837:85 1.11753e-05
*RES
1 *1045:ZN *1351:A1 43.0714 
*END

*D_NET *353 0.000608534
*CONN
*I *1326:C1 I *D OAI211_X1
*I *1350:A1 I *D OAI22_X1
*I *1046:ZN O *D INV_X1
*CAP
1 *1326:C1 3.91732e-05
2 *1350:A1 0.000122656
3 *1046:ZN 2.00143e-05
4 *353:8 0.000181844
5 *1326:C1 *1324:A3 2.86475e-06
6 *1326:C1 *1326:A 5.11665e-05
7 *1326:C1 *1326:C2 9.24306e-06
8 *1350:A1 *1324:A3 5.06552e-05
9 *1350:A1 *1326:A 3.75953e-06
10 *1350:A1 *1349:A2 0
11 *1350:A1 *1350:A2 2.39679e-06
12 *1350:A1 *513:16 5.08499e-06
13 *1350:A1 *766:12 3.66923e-05
14 *353:8 *1046:A 6.99525e-06
15 *353:8 *1326:A 1.07364e-05
16 *353:8 *513:16 5.73366e-06
17 *1467:D *1326:C1 0
18 *1467:D *1350:A1 5.95175e-05
*RES
1 *1046:ZN *353:8 12.9643 
2 *353:8 *1350:A1 26.3571 
3 *353:8 *1326:C1 15.75 
*END

*D_NET *354 0.000116831
*CONN
*I *1353:A1 I *D OAI22_X1
*I *1047:ZN O *D INV_X1
*CAP
1 *1353:A1 3.84381e-05
2 *1047:ZN 3.84381e-05
3 *1353:A1 *1353:A2 1.18547e-06
4 *1353:A1 *480:40 1.43238e-06
5 *1353:A1 *480:54 7.16188e-07
6 *1353:A1 *481:12 6.79532e-06
7 *1353:A1 *481:21 1.21774e-06
8 *1353:A1 *833:86 0
9 *1491:D *1353:A1 2.86077e-05
*RES
1 *1047:ZN *1353:A1 14.8571 
*END

*D_NET *355 9.58386e-05
*CONN
*I *1352:A1 I *D OAI22_X1
*I *1048:ZN O *D INV_X1
*CAP
1 *1352:A1 3.18524e-05
2 *1048:ZN 3.18524e-05
3 *1352:A1 *484:50 1.48912e-05
4 *1352:A1 *742:12 1.72426e-05
*RES
1 *1048:ZN *1352:A1 23.6429 
*END

*D_NET *356 0.000200249
*CONN
*I *1355:B2 I *D OAI22_X1
*I *1049:ZN O *D INV_X1
*CAP
1 *1355:B2 7.89046e-05
2 *1049:ZN 7.89046e-05
3 *1355:B2 *1355:A1 4.24402e-05
*RES
1 *1049:ZN *1355:B2 27.7143 
*END

*D_NET *357 0.000160768
*CONN
*I *1331:C1 I *D OAI211_X1
*I *1354:A1 I *D OAI22_X1
*I *1050:ZN O *D INV_X1
*CAP
1 *1331:C1 3.85133e-05
2 *1354:A1 4.18706e-05
3 *1050:ZN 0
4 *357:6 8.03839e-05
*RES
1 *1050:ZN *357:6 10 
2 *357:6 *1354:A1 13.6429 
3 *357:6 *1331:C1 13.6429 
*END

*D_NET *358 0.000462096
*CONN
*I *1213:A4 I *D NAND4_X1
*I *1165:C1 I *D AOI211_X2
*I *1051:ZN O *D INV_X1
*CAP
1 *1213:A4 7.34046e-05
2 *1165:C1 0.000107015
3 *1051:ZN 0.000180419
4 *1165:C2 *1165:C1 3.23357e-05
5 *1213:A2 *1213:A4 3.41279e-05
6 *1250:A4 *1165:C1 0
7 *1287:A2 *1165:C1 8.58953e-06
8 *1287:A4 *1165:C1 2.31008e-05
9 *1287:A4 *1213:A4 0
10 *30:52 *1165:C1 0
11 *31:42 *1213:A4 3.10376e-06
*RES
1 *1051:ZN *1165:C1 32.5714 
2 *1051:ZN *1213:A4 18.6786 
*END

*D_NET *359 0.000165133
*CONN
*I *1355:A1 I *D OAI22_X1
*I *1052:ZN O *D INV_X1
*CAP
1 *1355:A1 5.52879e-05
2 *1052:ZN 5.52879e-05
3 *1355:A1 *467:37 7.19036e-06
4 *1355:A1 *468:8 1.68643e-06
5 *1355:A1 *468:10 8.43215e-07
6 *1355:B2 *1355:A1 4.24402e-05
7 *1371:D *1355:A1 2.39679e-06
*RES
1 *1052:ZN *1355:A1 26.4286 
*END

*D_NET *362 0.000195564
*CONN
*I *1060:A I *D OAI211_X1
*I *1055:ZN O *D NAND3_X1
*CAP
1 *1060:A 8.69509e-05
2 *1055:ZN 8.69509e-05
3 *1060:A *1055:A1 0
4 *1060:A *1060:B 2.75346e-06
5 *1060:A *439:12 0
6 *1060:A *709:14 2.2843e-06
7 *1060:C2 *1060:A 6.44217e-06
8 *1299:B2 *1060:A 1.01819e-05
*RES
1 *1055:ZN *1060:A 19.1786 
*END

*D_NET *363 0.0105697
*CONN
*I *1639:A I *D BUF_X4
*I *1066:A2 I *D AOI22_X1
*I *1092:A2 I *D AOI22_X1
*I *1124:A2 I *D AOI22_X1
*I *1077:A2 I *D AOI22_X1
*I *1107:A2 I *D AOI22_X1
*I *1112:A2 I *D AOI22_X1
*I *1082:A2 I *D AOI22_X1
*I *1330:A2 I *D AOI22_X1
*I *1142:A2 I *D AOI22_X1
*I *1127:A2 I *D AOI22_X1
*I *1154:A2 I *D AOI22_X1
*I *1062:A2 I *D AOI22_X1
*I *1097:A2 I *D AOI22_X1
*I *1325:A2 I *D AOI22_X1
*I *1156:A2 I *D AOI22_X1
*I *1139:A2 I *D AOI22_X1
*I *1056:ZN O *D NOR2_X2
*CAP
1 *1639:A 5.39155e-05
2 *1066:A2 0
3 *1092:A2 0
4 *1124:A2 0
5 *1077:A2 0
6 *1107:A2 0
7 *1112:A2 0
8 *1082:A2 0
9 *1330:A2 0
10 *1142:A2 0
11 *1127:A2 0
12 *1154:A2 0.000154081
13 *1062:A2 1.56326e-05
14 *1097:A2 0
15 *1325:A2 0
16 *1156:A2 0
17 *1139:A2 8.71307e-06
18 *1056:ZN 0
19 *363:90 0.000289682
20 *363:84 0.000222984
21 *363:80 0.000253403
22 *363:74 0.000284455
23 *363:72 0.00039139
24 *363:66 0.000444213
25 *363:57 0.000629633
26 *363:55 0.00081952
27 *363:44 0.000393097
28 *363:37 0.000351075
29 *363:33 0.000560686
30 *363:29 0.000383098
31 *363:20 0.000370256
32 *363:18 0.000328043
33 *363:16 0.000307333
34 *363:12 0.000282645
35 *363:8 0.000251184
36 *363:6 0.000173481
37 *1062:A2 *1062:A1 8.43429e-06
38 *1062:A2 *365:114 1.9192e-06
39 *1154:A2 *1154:B1 5.54123e-06
40 *1154:A2 *365:114 0
41 *1154:A2 *369:10 0
42 *1154:A2 *830:63 1.33615e-05
43 *1639:A *1497:A3 7.34533e-06
44 *1639:A *365:10 4.45934e-05
45 *1639:A *365:12 6.84295e-05
46 *363:8 *1067:B 9.45065e-05
47 *363:8 *365:12 0.000484126
48 *363:12 *1067:B 1.21072e-05
49 *363:12 *1242:A1 1.0495e-05
50 *363:12 *365:12 3.81944e-05
51 *363:12 *365:16 0.000518498
52 *363:12 *493:8 1.55671e-05
53 *363:12 *493:12 0.000140721
54 *363:16 *1092:A1 2.75346e-06
55 *363:16 *1124:A1 1.83288e-05
56 *363:16 *365:20 8.67718e-06
57 *363:16 *397:8 6.90144e-05
58 *363:16 *427:12 0.000256199
59 *363:18 *365:20 8.43215e-07
60 *363:18 *365:22 4.54967e-05
61 *363:18 *427:12 1.68643e-06
62 *363:18 *441:14 3.36051e-05
63 *363:18 *441:16 2.85468e-05
64 *363:20 *1139:A1 1.87369e-06
65 *363:20 *365:22 7.16188e-07
66 *363:20 *365:26 2.67491e-05
67 *363:20 *383:8 0.000149952
68 *363:20 *441:14 0.000107957
69 *363:20 *476:20 3.5108e-06
70 *363:29 *1107:A1 4.45934e-05
71 *363:29 *1139:A1 1.21774e-06
72 *363:29 *365:32 4.60494e-05
73 *363:29 *365:38 7.16188e-07
74 *363:29 *476:20 4.6949e-05
75 *363:33 *1045:A 0
76 *363:33 *365:38 0.000536237
77 *363:33 *365:55 4.26902e-05
78 *363:37 *992:A 1.5896e-05
79 *363:37 *1325:A1 3.35796e-05
80 *363:37 *1325:B1 2.39679e-06
81 *363:37 *1325:B2 4.60303e-05
82 *363:37 *365:46 3.38542e-05
83 *363:37 *767:10 1.23913e-05
84 *363:37 *774:6 1.34605e-05
85 *363:44 *1325:A1 0
86 *363:57 *1228:B1 0
87 *363:57 *365:73 3.8167e-05
88 *363:57 *739:12 1.75851e-05
89 *363:66 *1097:A1 3.35688e-05
90 *363:66 *365:79 2.36968e-05
91 *363:72 *1082:A1 2.27771e-05
92 *363:72 *1112:A1 3.30471e-05
93 *363:72 *365:79 2.16072e-07
94 *363:72 *365:87 2.60623e-05
95 *363:72 *388:14 9.44043e-06
96 *363:72 *740:10 7.87811e-06
97 *363:74 *365:87 1.21774e-06
98 *363:74 *365:89 3.70527e-05
99 *363:74 *365:95 1.43238e-06
100 *363:74 *388:14 0
101 *363:74 *742:12 4.4596e-05
102 *363:80 *1330:A1 1.66706e-05
103 *363:80 *365:95 2.99581e-05
104 *363:80 *736:12 3.73508e-05
105 *363:84 *365:95 7.16188e-07
106 *363:84 *365:99 2.21679e-05
107 *363:90 *1003:A 3.23723e-07
108 *363:90 *1062:A1 2.42478e-05
109 *363:90 *1477:CK 1.07633e-05
110 *363:90 *365:99 8.43215e-07
111 *363:90 *365:114 0
112 *363:90 *483:69 2.29071e-05
113 *363:90 *484:97 1.86809e-06
114 *363:90 *830:63 3.70422e-05
115 *363:90 *830:86 3.81848e-06
116 *1463:D *363:57 0
*RES
1 *1056:ZN *363:6 10 
2 *363:6 *363:8 25.3572 
3 *363:8 *363:12 34.4286 
4 *363:12 *363:16 25.1786 
5 *363:16 *363:18 20.25 
6 *363:18 *363:20 26.25 
7 *363:20 *1139:A2 5.92857 
8 *363:20 *363:29 24.25 
9 *363:29 *363:33 35.7857 
10 *363:33 *363:37 45.25 
11 *363:37 *1156:A2 5 
12 *363:33 *363:44 1.60714 
13 *363:44 *1325:A2 10 
14 *363:44 *363:55 45.9643 
15 *363:55 *363:57 45.75 
16 *363:57 *1097:A2 5 
17 *363:57 *363:66 21.1786 
18 *363:66 *363:72 28.6429 
19 *363:72 *363:74 16.25 
20 *363:74 *363:80 16.7857 
21 *363:80 *363:84 11.1786 
22 *363:84 *363:90 19.7857 
23 *363:90 *1062:A2 12.25 
24 *363:90 *1154:A2 26.3929 
25 *363:84 *1127:A2 5 
26 *363:80 *1142:A2 5 
27 *363:74 *1330:A2 5 
28 *363:72 *1082:A2 5 
29 *363:66 *1112:A2 5 
30 *363:29 *1107:A2 5 
31 *363:18 *1077:A2 5 
32 *363:16 *1124:A2 5 
33 *363:12 *1092:A2 5 
34 *363:8 *1066:A2 10 
35 *363:6 *1639:A 17.8929 
*END

*D_NET *365 0.011644
*CONN
*I *1638:A I *D BUF_X4
*I *1066:B1 I *D AOI22_X1
*I *1092:B1 I *D AOI22_X1
*I *1124:B1 I *D AOI22_X1
*I *1077:B1 I *D AOI22_X1
*I *1139:B1 I *D AOI22_X1
*I *1107:B1 I *D AOI22_X1
*I *1325:B1 I *D AOI22_X1
*I *1097:B1 I *D AOI22_X1
*I *1112:B1 I *D AOI22_X1
*I *1082:B1 I *D AOI22_X1
*I *1330:B1 I *D AOI22_X1
*I *1142:B1 I *D AOI22_X1
*I *1154:B1 I *D AOI22_X1
*I *1062:B1 I *D AOI22_X1
*I *1127:B1 I *D AOI22_X1
*I *1156:B1 I *D AOI22_X1
*I *1058:ZN O *D AND2_X2
*CAP
1 *1638:A 0.000170316
2 *1066:B1 0
3 *1092:B1 0
4 *1124:B1 0
5 *1077:B1 0
6 *1139:B1 0
7 *1107:B1 0
8 *1325:B1 5.49579e-06
9 *1097:B1 0
10 *1112:B1 0
11 *1082:B1 0
12 *1330:B1 0
13 *1142:B1 0
14 *1154:B1 9.37982e-05
15 *1062:B1 0
16 *1127:B1 7.54119e-06
17 *1156:B1 0
18 *1058:ZN 0.000141761
19 *365:114 0.000243326
20 *365:99 0.000239293
21 *365:95 0.000229631
22 *365:89 0.000262403
23 *365:87 0.000348642
24 *365:79 0.000389754
25 *365:73 0.000331471
26 *365:71 0.000524024
27 *365:67 0.000590978
28 *365:55 0.000264107
29 *365:46 0.0003034
30 *365:38 0.000511218
31 *365:32 0.000400962
32 *365:26 0.000440721
33 *365:22 0.000396032
34 *365:20 0.000350616
35 *365:16 0.000354996
36 *365:12 0.000356719
37 *365:10 0.000499668
38 *1127:B1 *1127:A1 1.72405e-05
39 *1154:B1 *1062:B2 1.30948e-05
40 *1154:B1 *1154:B2 3.83757e-05
41 *1325:B1 *1325:B2 2.39679e-06
42 *1638:A *1497:A3 0
43 *1638:A *1499:A 2.23871e-06
44 *1638:A *1503:CK 0
45 *1638:A *1504:D 0
46 *1638:A *1504:CK 4.69886e-06
47 *1638:A *826:6 0.000213648
48 *365:10 *1065:A3 0
49 *365:10 *1497:A3 0
50 *365:10 *826:6 1.05232e-05
51 *365:10 *851:12 0
52 *365:12 *980:A 3.02351e-05
53 *365:12 *1499:A 0
54 *365:12 *474:60 0
55 *365:12 *474:94 0
56 *365:16 *980:A 6.7642e-05
57 *365:16 *474:60 2.70295e-05
58 *365:16 *493:12 7.18184e-06
59 *365:20 *1092:A1 3.09143e-06
60 *365:20 *1092:B2 2.75346e-06
61 *365:20 *1124:A1 4.45934e-05
62 *365:20 *1124:B2 1.69265e-05
63 *365:20 *397:8 0.000167264
64 *365:20 *476:47 0
65 *365:20 *745:8 1.75677e-05
66 *365:22 *1077:B2 4.66361e-05
67 *365:22 *1124:B2 2.39679e-06
68 *365:22 *487:44 0
69 *365:22 *487:87 0
70 *365:22 *748:8 2.03034e-05
71 *365:26 *1077:B2 2.75346e-06
72 *365:26 *1139:A1 2.39679e-06
73 *365:26 *1139:B2 1.68643e-06
74 *365:26 *383:8 6.24854e-05
75 *365:26 *487:44 0
76 *365:26 *487:57 0
77 *365:26 *744:8 0
78 *365:26 *768:8 0
79 *365:32 *1107:A1 1.83288e-05
80 *365:32 *1107:B2 4.184e-05
81 *365:32 *1139:A1 2.24822e-06
82 *365:32 *1139:B2 2.39679e-06
83 *365:32 *1219:B1 0
84 *365:32 *487:57 0
85 *365:32 *746:8 2.05195e-05
86 *365:38 *1107:A1 0
87 *365:38 *1107:B2 2.75346e-06
88 *365:38 *1219:B1 0
89 *365:38 *476:20 0
90 *365:46 *992:A 2.11846e-05
91 *365:46 *1045:A 6.74733e-06
92 *365:46 *1156:B2 1.98725e-05
93 *365:46 *1325:B2 4.68735e-05
94 *365:46 *1351:A2 0
95 *365:46 *767:10 7.4533e-05
96 *365:46 *774:6 1.26173e-05
97 *365:46 *837:85 0
98 *365:67 *513:8 0.000130089
99 *365:71 *474:34 1.35532e-05
100 *365:71 *514:8 0
101 *365:73 *465:33 0
102 *365:73 *483:18 6.07323e-06
103 *365:73 *739:12 4.38852e-05
104 *365:73 *832:47 1.06445e-05
105 *365:79 *1001:A 1.4491e-05
106 *365:79 *1097:A1 3.35688e-05
107 *365:79 *1112:B2 6.63495e-05
108 *365:79 *739:12 2.39679e-06
109 *365:79 *832:47 2.2418e-05
110 *365:87 *1082:A1 2.27771e-05
111 *365:87 *1082:B2 9.4788e-05
112 *365:87 *1112:A1 1.34605e-05
113 *365:87 *1112:B2 8.43215e-07
114 *365:87 *483:26 0
115 *365:87 *483:32 3.34736e-06
116 *365:87 *740:10 6.07323e-06
117 *365:89 *1048:A 2.52965e-06
118 *365:89 *1082:B2 2.75346e-06
119 *365:89 *1330:B2 2.1982e-05
120 *365:89 *484:50 3.96575e-05
121 *365:89 *829:12 1.28122e-06
122 *365:95 *1142:B2 4.66361e-05
123 *365:95 *1330:A1 6.06937e-06
124 *365:95 *1330:B2 1.21774e-06
125 *365:95 *1477:CK 1.42464e-05
126 *365:95 *484:64 1.28122e-06
127 *365:95 *829:18 0
128 *365:99 *1003:A 1.21774e-06
129 *365:99 *1142:B2 2.75346e-06
130 *365:99 *1477:CK 1.34708e-05
131 *365:99 *737:12 1.51469e-05
132 *365:114 *1062:A1 3.09143e-06
133 *365:114 *1062:B2 7.16188e-07
134 *365:114 *1127:A1 1.72426e-05
135 *365:114 *430:10 0.000107413
136 *365:114 *830:86 0
137 *1024:A *365:67 0
138 *1062:A2 *365:114 1.9192e-06
139 *1154:A2 *1154:B1 5.54123e-06
140 *1154:A2 *365:114 0
141 *1165:C2 *365:71 9.52324e-06
142 *1207:B2 *365:87 1.40196e-05
143 *1213:A2 *365:67 0
144 *1250:A2 *365:67 0
145 *1351:A1 *365:46 0.000197831
146 *1468:D *365:46 0
147 *1639:A *365:10 4.45934e-05
148 *1639:A *365:12 6.84295e-05
149 *363:8 *365:12 0.000484126
150 *363:12 *365:12 3.81944e-05
151 *363:12 *365:16 0.000518498
152 *363:16 *365:20 8.67718e-06
153 *363:18 *365:20 8.43215e-07
154 *363:18 *365:22 4.54967e-05
155 *363:20 *365:22 7.16188e-07
156 *363:20 *365:26 2.67491e-05
157 *363:29 *365:32 4.60494e-05
158 *363:29 *365:38 7.16188e-07
159 *363:33 *365:38 0.000536237
160 *363:33 *365:55 4.26902e-05
161 *363:37 *1325:B1 2.39679e-06
162 *363:37 *365:46 3.38542e-05
163 *363:57 *365:73 3.8167e-05
164 *363:66 *365:79 2.36968e-05
165 *363:72 *365:79 2.16072e-07
166 *363:72 *365:87 2.60623e-05
167 *363:74 *365:87 1.21774e-06
168 *363:74 *365:89 3.70527e-05
169 *363:74 *365:95 1.43238e-06
170 *363:80 *365:95 2.99581e-05
171 *363:84 *365:95 7.16188e-07
172 *363:84 *365:99 2.21679e-05
173 *363:90 *365:99 8.43215e-07
174 *363:90 *365:114 0
*RES
1 *1058:ZN *365:10 25.3571 
2 *365:10 *365:12 31.4643 
3 *365:12 *365:16 34.4286 
4 *365:16 *365:20 25.6786 
5 *365:20 *365:22 20.25 
6 *365:22 *365:26 26.6786 
7 *365:26 *365:32 25.9286 
8 *365:32 *365:38 35.8572 
9 *365:38 *365:46 46.9286 
10 *365:46 *1156:B1 5 
11 *365:38 *365:55 7.28572 
12 *365:55 *365:67 32.7857 
13 *365:67 *365:71 43.9286 
14 *365:71 *365:73 20.75 
15 *365:73 *365:79 21.4286 
16 *365:79 *365:87 28.8929 
17 *365:87 *365:89 15.75 
18 *365:89 *365:95 17.2857 
19 *365:95 *365:99 15.25 
20 *365:99 *1127:B1 10.9286 
21 *365:99 *365:114 21.6071 
22 *365:114 *1062:B1 5 
23 *365:114 *1154:B1 16.1786 
24 *365:95 *1142:B1 5 
25 *365:89 *1330:B1 5 
26 *365:87 *1082:B1 5 
27 *365:79 *1112:B1 5 
28 *365:73 *1097:B1 5 
29 *365:55 *1325:B1 5.75 
30 *365:32 *1107:B1 5 
31 *365:26 *1139:B1 5 
32 *365:22 *1077:B1 5 
33 *365:20 *1124:B1 5 
34 *365:16 *1092:B1 5 
35 *365:12 *1066:B1 10 
36 *365:10 *1638:A 31.8572 
*END

*D_NET *366 0.00160738
*CONN
*I *1060:B I *D OAI211_X1
*I *1059:ZN O *D AOI22_X1
*CAP
1 *1060:B 0.000160203
2 *1059:ZN 7.03913e-05
3 *366:14 0.000489796
4 *366:10 0.000399984
5 *1060:B *1322:B1 0
6 *1060:B *1394:CK 0
7 *1060:B *1405:CK 1.33537e-05
8 *1060:B *439:12 0
9 *1060:B *709:14 6.38328e-07
10 *366:10 *825:117 2.72417e-06
11 *366:10 *825:127 3.1154e-05
12 *366:14 *1122:B2 2.6197e-05
13 *366:14 *1137:A2 3.84531e-05
14 *366:14 *1137:B1 2.29153e-05
15 *366:14 *1137:B2 1.44825e-05
16 *366:14 *1321:A1 0
17 *366:14 *1322:B1 0
18 *366:14 *511:26 0
19 *366:14 *713:18 3.09411e-06
20 *366:14 *826:169 2.37615e-05
21 *366:14 *833:18 8.4215e-05
22 *366:14 *833:28 0.000113616
23 *366:14 *833:36 6.59741e-06
24 *1060:A *1060:B 2.75346e-06
25 *1321:B2 *366:14 9.62051e-07
26 *1322:B2 *1060:B 6.8975e-05
27 *1322:B2 *366:14 7.38429e-07
28 *1381:D *1060:B 1.76665e-06
29 *1381:D *366:14 3.0607e-05
*RES
1 *1059:ZN *366:10 23.3929 
2 *366:10 *366:14 43.3572 
3 *366:14 *1060:B 24.6072 
*END

*D_NET *367 0.00383642
*CONN
*I *1072:A2 I *D AOI22_X1
*I *1060:ZN O *D OAI211_X1
*CAP
1 *1072:A2 0
2 *1060:ZN 0.000483001
3 *367:26 0.000890515
4 *367:18 0.0012821
5 *367:14 0.000874587
6 *367:14 *1137:B1 0
7 *367:14 *425:12 0
8 *367:14 *828:262 0
9 *367:18 *1128:A 0
10 *367:18 *476:163 0
11 *367:18 *476:172 0
12 *367:18 *480:62 1.14365e-05
13 *367:26 *370:14 0
14 *367:26 *456:14 0.000244582
15 *367:26 *474:290 9.65526e-07
16 *367:26 *519:20 4.92351e-05
17 *1060:C2 *367:14 0
*RES
1 *1060:ZN *367:14 42.5529 
2 *367:14 *367:18 47.25 
3 *367:18 *367:26 47.6114 
4 *367:26 *1072:A2 5 
*END

*D_NET *369 0.000789509
*CONN
*I *1063:A I *D OAI221_X1
*I *1062:ZN O *D AOI22_X1
*CAP
1 *1063:A 3.98761e-05
2 *1062:ZN 0.000286048
3 *369:10 0.000325924
4 *1063:A *1063:B1 2.84429e-05
5 *369:10 *1062:A1 6.25848e-07
6 *369:10 *1155:B1 0
7 *369:10 *1192:A2 8.14262e-05
8 *369:10 *1192:B2 1.50149e-05
9 *369:10 *1356:CK 0
10 *369:10 *470:46 1.14339e-05
11 *369:10 *830:63 0
12 *1063:C1 *1063:A 7.16188e-07
13 *1154:A2 *369:10 0
*RES
1 *1062:ZN *369:10 46.4643 
2 *369:10 *1063:A 9.75 
*END

*D_NET *370 0.00266947
*CONN
*I *1072:B2 I *D AOI22_X1
*I *1063:ZN O *D OAI221_X1
*CAP
1 *1072:B2 4.62861e-05
2 *1063:ZN 2.25365e-05
3 *370:14 0.00109002
4 *370:10 0.00106627
5 *1072:B2 *1194:A1 1.67442e-05
6 *1072:B2 *379:10 2.10126e-05
7 *1072:B2 *474:290 4.48812e-06
8 *370:14 *445:14 0.000203824
9 *370:14 *476:142 0
10 *370:14 *519:20 0.000195866
11 *1192:A1 *370:10 2.42048e-06
12 *367:26 *370:14 0
*RES
1 *1063:ZN *370:10 17.3214 
2 *370:10 *370:14 48.68 
3 *370:14 *1072:B2 15.7143 
*END

*D_NET *372 0.000351644
*CONN
*I *1067:A I *D OAI211_X1
*I *1065:ZN O *D NAND3_X1
*CAP
1 *1067:A 0.000147635
2 *1065:ZN 0.000147635
3 *1067:A *1067:B 2.75346e-06
4 *1067:A *1067:C2 6.44217e-06
5 *1067:A *374:8 4.71788e-05
6 *1067:A *397:10 0
7 *1067:A *827:65 0
*RES
1 *1065:ZN *1067:A 37.75 
*END

*D_NET *373 0.00048712
*CONN
*I *1067:B I *D OAI211_X1
*I *1066:ZN O *D AOI22_X1
*CAP
1 *1067:B 0.000188877
2 *1066:ZN 0.000188877
3 *1067:A *1067:B 2.75346e-06
4 *363:8 *1067:B 9.45065e-05
5 *363:12 *1067:B 1.21072e-05
*RES
1 *1066:ZN *1067:B 43.25 
*END

*D_NET *374 0.00160855
*CONN
*I *1073:B2 I *D AOI221_X1
*I *1067:ZN O *D OAI211_X1
*CAP
1 *1073:B2 7.27768e-06
2 *1067:ZN 0
3 *374:8 0.000632541
4 *374:6 0.000625263
5 *1073:B2 *1073:C1 0
6 *1073:B2 *378:20 7.16188e-07
7 *374:8 *1065:A3 6.92212e-05
8 *374:8 *1075:B2 1.14896e-05
9 *374:8 *851:12 0.000153682
10 *1067:A *374:8 4.71788e-05
11 *1067:C1 *374:8 1.77822e-05
12 *1500:B1 *374:8 4.24381e-05
13 *17:16 *1073:B2 9.62051e-07
*RES
1 *1067:ZN *374:6 10 
2 *374:6 *374:8 73.5357 
3 *374:8 *1073:B2 10.75 
*END

*D_NET *375 0.00350309
*CONN
*I *1103:B1 I *D AOI21_X1
*I *1088:B1 I *D AOI21_X1
*I *1160:A1 I *D AOI22_X1
*I *1336:B1 I *D AOI21_X1
*I *1148:B1 I *D AOI21_X1
*I *1117:B2 I *D AOI22_X1
*I *1073:C1 I *D AOI221_X1
*I *1132:B2 I *D AOI22_X1
*I *1068:ZN O *D AND2_X1
*CAP
1 *1103:B1 0.000105284
2 *1088:B1 0
3 *1160:A1 0
4 *1336:B1 0
5 *1148:B1 0
6 *1117:B2 0.000225363
7 *1073:C1 6.59686e-05
8 *1132:B2 0.000110079
9 *1068:ZN 8.70898e-05
10 *375:90 0.000206107
11 *375:54 0.000387391
12 *375:42 0.000272076
13 *375:36 0.00045581
14 *375:32 0.00050666
15 *375:21 0.000144665
16 *375:10 0.000215791
17 *1073:C1 *378:20 1.21774e-06
18 *1103:B1 *1090:A 2.49203e-05
19 *1103:B1 *1090:B1 1.59858e-05
20 *1103:B1 *1103:B2 1.21774e-06
21 *1103:B1 *378:20 1.09684e-05
22 *1117:B2 *1117:B1 3.65322e-06
23 *1117:B2 *1119:A 1.88444e-05
24 *1117:B2 *1120:A 4.39667e-05
25 *1117:B2 *1148:B2 0
26 *1117:B2 *1150:B1 0
27 *1132:B2 *1132:A2 3.19164e-07
28 *1132:B2 *1132:B1 8.26038e-06
29 *375:36 *1090:B2 0
30 *375:36 *1134:A 7.72792e-06
31 *375:36 *1135:A 7.02617e-06
32 *375:36 *393:16 3.87617e-05
33 *375:36 *462:19 0
34 *375:42 *1149:A 0
35 *375:42 *1160:B1 3.09411e-06
36 *375:42 *393:16 2.96067e-05
37 *375:42 *462:19 0
38 *375:54 *1119:A 9.77674e-06
39 *375:54 *1148:B2 2.75346e-06
40 *375:54 *1150:B1 3.35796e-05
41 *375:54 *1338:B1 1.25189e-05
42 *375:54 *393:8 0
43 *375:54 *393:16 0.000164452
44 *375:54 *462:19 0
45 *375:54 *827:173 2.73686e-05
46 *375:90 *1088:B2 4.31185e-06
47 *375:90 *1090:B1 1.37673e-05
48 *375:90 *473:49 0
49 *1073:B2 *1073:C1 0
50 *1134:B1 *1132:B2 0
51 *1134:B1 *375:36 2.7793e-05
52 *1149:B1 *375:54 2.51184e-05
53 *1374:D *1132:B2 0
54 *1374:D *375:36 0
55 *1375:D *1117:B2 6.47615e-06
56 *1377:D *1103:B1 9.4103e-06
57 *10:23 *1103:B1 2.56352e-05
58 *10:23 *375:90 1.04006e-05
59 *11:8 *375:54 4.93896e-05
60 *12:19 *375:36 1.15036e-05
61 *13:12 *1117:B2 0
62 *17:10 *375:42 0
63 *17:16 *1073:C1 0
64 *17:16 *1132:B2 0
65 *17:16 *375:10 7.09827e-05
*RES
1 *1068:ZN *375:10 21.0714 
2 *375:10 *1132:B2 23.75 
3 *375:10 *375:21 1.60714 
4 *375:21 *1073:C1 16.75 
5 *375:21 *375:32 6.35715 
6 *375:32 *375:36 42.75 
7 *375:36 *375:42 12.6071 
8 *375:42 *375:54 33.7143 
9 *375:54 *1117:B2 40.5 
10 *375:54 *1148:B1 5 
11 *375:42 *1336:B1 5 
12 *375:36 *1160:A1 5 
13 *375:32 *375:90 15.6429 
14 *375:90 *1088:B1 5 
15 *375:90 *1103:B1 28.4643 
*END

*D_NET *376 0.000412673
*CONN
*I *1071:A I *D OAI211_X1
*I *1069:ZN O *D NAND3_X1
*CAP
1 *1071:A 0.000131267
2 *1069:ZN 0.000131267
3 *1071:A *1101:A 0.000103705
4 *1071:C1 *1071:A 2.21319e-05
5 *1101:C1 *1071:A 2.41945e-05
6 *1434:D *1071:A 1.08036e-07
*RES
1 *1069:ZN *1071:A 38.0714 
*END

*D_NET *377 0.00173777
*CONN
*I *1071:B I *D OAI211_X1
*I *1070:ZN O *D AOI22_X1
*CAP
1 *1071:B 2.60427e-05
2 *1070:ZN 0.000129876
3 *377:18 0.00041114
4 *377:16 0.000514974
5 *1071:B *474:119 9.9131e-06
6 *377:16 *1070:A1 7.72537e-06
7 *377:16 *1070:B1 2.75346e-06
8 *377:16 *1280:B1 9.35666e-05
9 *377:16 *685:26 0.000224347
10 *377:18 *953:A 2.09547e-05
11 *377:18 *1100:A1 1.03927e-05
12 *377:18 *405:10 0
13 *377:18 *474:140 8.2746e-05
14 *377:18 *685:26 1.66988e-05
15 *377:18 *779:10 3.44913e-05
16 *377:18 *826:36 3.1212e-06
17 *377:18 *826:38 6.59856e-05
18 *377:18 *844:103 0
19 *1101:C1 *1071:B 3.46292e-05
20 *1101:C1 *377:18 4.70773e-06
21 *1418:D *377:16 6.06867e-06
22 *1442:D *377:16 0
23 *264:8 *377:18 3.76379e-05
*RES
1 *1070:ZN *377:16 40.5 
2 *377:16 *377:18 50.5 
3 *377:18 *1071:B 13.6786 
*END

*D_NET *378 0.00193411
*CONN
*I *1073:C2 I *D AOI221_X1
*I *1071:ZN O *D OAI211_X1
*CAP
1 *1073:C2 0
2 *1071:ZN 0
3 *378:20 0.000331281
4 *378:10 0.000601582
5 *378:6 0.000270302
6 *378:10 *938:A 0
7 *378:10 *1069:A2 0
8 *378:10 *1099:A2 2.72417e-06
9 *378:10 *1101:A 8.32372e-05
10 *378:10 *474:119 3.93852e-05
11 *378:10 *499:97 0
12 *378:10 *843:100 0.000313207
13 *378:10 *851:57 7.98279e-05
14 *378:20 *1075:B1 2.27771e-05
15 *378:20 *1105:B1 2.94155e-05
16 *378:20 *406:10 4.98192e-06
17 *378:20 *827:215 1.80849e-05
18 *1073:B2 *378:20 7.16188e-07
19 *1073:C1 *378:20 1.21774e-06
20 *1103:B1 *378:20 1.09684e-05
21 *1271:B2 *378:10 0
22 *1426:D *378:10 6.44376e-06
23 *11:25 *378:20 0.000117961
24 *17:16 *378:20 0
*RES
1 *1071:ZN *378:6 10 
2 *378:6 *378:10 45.9643 
3 *378:10 *378:20 48.5 
4 *378:20 *1073:C2 5 
*END

*D_NET *379 0.00377018
*CONN
*I *1075:B2 I *D AOI21_X1
*I *1072:ZN O *D AOI22_X1
*CAP
1 *1075:B2 0.000201579
2 *1072:ZN 0.000150784
3 *379:12 0.00161529
4 *379:10 0.00156449
5 *1075:B2 *1075:B1 1.37673e-05
6 *379:10 *1013:A 8.58678e-06
7 *379:10 *1194:A1 3.63938e-05
8 *379:10 *440:26 0
9 *379:10 *474:290 0
10 *379:12 *384:22 6.99068e-05
11 *379:12 *445:14 0
12 data_out[7] *1075:B2 2.55331e-06
13 *1072:B2 *379:10 2.10126e-05
14 *1378:D *1075:B2 6.56185e-06
15 *17:16 *1075:B2 6.59963e-05
16 *17:18 *1075:B2 1.76665e-06
17 *374:8 *1075:B2 1.14896e-05
*RES
1 *1072:ZN *379:10 33.0714 
2 *379:10 *379:12 52.92 
3 *379:12 *1075:B2 38.8572 
*END

*D_NET *380 0.000292582
*CONN
*I *1075:B1 I *D AOI21_X1
*I *1073:ZN O *D AOI221_X1
*CAP
1 *1075:B1 0.000126642
2 *1073:ZN 0.000126642
3 *1075:B1 *1075:A 2.75346e-06
4 *1075:B1 *1105:B1 0
5 *1075:B2 *1075:B1 1.37673e-05
6 *378:20 *1075:B1 2.27771e-05
*RES
1 *1073:ZN *1075:B1 23.8214 
*END

*D_NET *381 0.000120903
*CONN
*I *1075:A I *D AOI21_X1
*I *1074:ZN O *D OAI21_X1
*CAP
1 *1075:A 5.31718e-05
2 *1074:ZN 5.31718e-05
3 data_out[7] *1075:A 0
4 *1075:B1 *1075:A 2.75346e-06
5 *1378:D *1075:A 1.18056e-05
*RES
1 *1074:ZN *1075:A 15.6071 
*END

*D_NET *382 0.00027713
*CONN
*I *1078:A I *D OAI211_X1
*I *1076:ZN O *D NAND3_X1
*CAP
1 *1078:A 0.000117139
2 *1076:ZN 0.000117139
3 *1078:A *383:10 1.72405e-05
4 *1078:A *491:26 2.00802e-05
5 *1078:A *764:12 0
6 *1078:A *828:69 5.53254e-06
*RES
1 *1076:ZN *1078:A 32.3929 
*END

*D_NET *383 0.00156762
*CONN
*I *1078:B I *D OAI211_X1
*I *1077:ZN O *D AOI22_X1
*CAP
1 *1078:B 5.83108e-06
2 *1077:ZN 8.32096e-05
3 *383:10 0.000481943
4 *383:8 0.000559322
5 *1078:B *1078:C2 6.82202e-07
6 *1078:B *491:26 7.19036e-06
7 *383:10 *979:A 1.43476e-06
8 *383:10 *992:A 1.36901e-05
9 *383:10 *384:14 5.22107e-05
10 *383:10 *457:8 0
11 *383:10 *487:121 1.36837e-05
12 *383:10 *823:154 4.9628e-06
13 *383:10 *828:69 5.39412e-06
14 *383:10 *837:10 0
15 *383:10 *837:16 0
16 *1078:A *383:10 1.72405e-05
17 *1078:C1 *1078:B 1.21774e-06
18 *1222:B2 *383:10 0.000107166
19 *1249:B2 *383:10 0
20 *363:20 *383:8 0.000149952
21 *365:26 *383:8 6.24854e-05
*RES
1 *1077:ZN *383:8 24.25 
2 *383:8 *383:10 55.8929 
3 *383:10 *1078:B 10.75 
*END

*D_NET *384 0.00472152
*CONN
*I *1087:C2 I *D AOI222_X1
*I *1078:ZN O *D OAI211_X1
*CAP
1 *1087:C2 0.000114017
2 *1078:ZN 0.000530084
3 *384:28 0.000618245
4 *384:26 0.000582657
5 *384:22 0.000975263
6 *384:14 0.00142692
7 *1087:C2 *1087:A2 0
8 *1087:C2 *1087:B1 7.16188e-07
9 *1087:C2 *1118:B2 6.99525e-06
10 *1087:C2 *1118:C1 4.75508e-06
11 *1087:C2 *1120:B1 1.5084e-05
12 *1087:C2 *1335:A2 0
13 *1087:C2 *462:17 0
14 *1087:C2 *523:14 0
15 *384:14 *474:38 0
16 *384:14 *823:154 4.07871e-06
17 *384:14 *828:69 1.43544e-05
18 *384:14 *828:75 2.64615e-05
19 *384:28 *1147:A2 0
20 *384:28 *1147:C1 9.62051e-07
21 *384:28 *1150:B2 0
22 *384:28 *1337:A 0
23 *384:28 *1338:A 0
24 *384:28 *442:12 0
25 *384:28 *523:14 4.32687e-06
26 *384:28 *523:18 0.000197708
27 *1379:D *384:28 1.40196e-05
28 *17:16 *384:28 3.05062e-05
29 *23:67 *384:28 3.22538e-05
30 *379:12 *384:22 6.99068e-05
31 *383:10 *384:14 5.22107e-05
*RES
1 *1078:ZN *384:14 42.9614 
2 *384:14 *384:22 44.96 
3 *384:22 *384:26 12.6429 
4 *384:26 *384:28 61.25 
5 *384:28 *1087:C2 27.1071 
*END

*D_NET *385 0.001412
*CONN
*I *1080:A I *D OAI221_X1
*I *1079:ZN O *D AOI22_X1
*CAP
1 *1080:A 0.000173223
2 *1079:ZN 1.4642e-05
3 *385:10 0.000505299
4 *385:6 0.000346717
5 *1080:A *1038:A 0
6 *1080:A *1403:CK 2.17286e-05
7 *1080:A *825:82 0
8 *385:6 *826:138 1.04584e-06
9 *385:10 *1109:A1 1.04006e-05
10 *385:10 *1341:A2 0
11 *385:10 *413:8 0.000105322
12 *385:10 *825:82 1.91498e-06
13 *385:10 *825:86 2.58751e-05
14 *385:10 *825:101 6.44217e-06
15 *385:10 *826:138 0.000197831
16 *1080:B2 *1080:A 8.43215e-07
17 *1080:C1 *1080:A 7.16188e-07
18 *1328:C1 *1080:A 0
*RES
1 *1079:ZN *385:6 6.60714 
2 *385:6 *385:10 48.75 
3 *385:10 *1080:A 27.4643 
*END

*D_NET *386 0.00336279
*CONN
*I *1087:A2 I *D AOI222_X1
*I *1080:ZN O *D OAI221_X1
*CAP
1 *1087:A2 7.08567e-06
2 *1080:ZN 0
3 *386:16 0.000542541
4 *386:14 0.000904887
5 *386:8 0.000731557
6 *386:6 0.000362125
7 *1087:A2 *1087:B1 1.21774e-06
8 *386:8 *1095:A 1.91421e-05
9 *386:8 *1665:A 0
10 *386:8 *695:18 0.000156202
11 *386:8 *836:19 0
12 *386:8 *836:42 0.000468223
13 *386:8 *836:66 5.14369e-05
14 *386:8 *836:81 4.21702e-05
15 *386:14 *935:A 1.21614e-05
16 *386:14 *439:12 0
17 *386:16 *1120:B1 2.18774e-06
18 *386:16 *462:17 6.18555e-05
19 *386:16 *516:26 0
20 *1087:C2 *1087:A2 0
*RES
1 *1080:ZN *386:6 10 
2 *386:6 *386:8 51.8214 
3 *386:8 *386:14 46.75 
4 *386:14 *386:16 60.6429 
5 *386:16 *1087:A2 10.75 
*END

*D_NET *387 0.000374822
*CONN
*I *1083:A I *D OAI211_X1
*I *1081:ZN O *D NAND3_X1
*CAP
1 *1083:A 0.000147901
2 *1081:ZN 0.000147901
3 *1083:A *1081:A2 1.88334e-06
4 *1083:A *1083:B 1.32348e-05
5 *1083:A *473:41 6.16682e-05
6 *1083:A *823:35 2.23415e-06
*RES
1 *1081:ZN *1083:A 37.7857 
*END

*D_NET *388 0.00102283
*CONN
*I *1083:B I *D OAI211_X1
*I *1082:ZN O *D AOI22_X1
*CAP
1 *1083:B 0.00034006
2 *1082:ZN 0.000108251
3 *388:14 0.000448311
4 *1083:B *473:28 0.000103254
5 *1083:B *473:41 0
6 *1083:B *823:35 0
7 *388:14 *1082:A1 2.77917e-07
8 *388:14 *473:28 0
9 *1083:A *1083:B 1.32348e-05
10 *1083:C1 *1083:B 0
11 *1182:A1 *1083:B 0
12 *363:72 *388:14 9.44043e-06
13 *363:74 *388:14 0
*RES
1 *1082:ZN *388:14 30.75 
2 *388:14 *1083:B 48.0714 
*END

*D_NET *389 0.00156917
*CONN
*I *1087:B1 I *D AOI222_X1
*I *1083:ZN O *D OAI211_X1
*CAP
1 *1087:B1 0.000361682
2 *1083:ZN 0.00036352
3 *389:14 0.000725203
4 *1087:B1 *1335:A2 0
5 *1087:B1 *456:22 0
6 *1087:B1 *480:12 0
7 *389:14 *1113:A 9.62001e-06
8 *389:14 *416:12 7.72792e-06
9 *389:14 *417:12 9.85173e-05
10 *389:14 *480:12 0
11 *389:14 *823:25 0
12 *389:14 *823:29 9.62051e-07
13 *1087:A2 *1087:B1 1.21774e-06
14 *1087:C2 *1087:B1 7.16188e-07
*RES
1 *1083:ZN *389:14 49.0714 
2 *389:14 *1087:B1 45.25 
*END

*D_NET *390 0.000325023
*CONN
*I *1086:A I *D OAI211_X1
*I *1084:ZN O *D NAND3_X1
*CAP
1 *1086:A 0.00011963
2 *1084:ZN 0.00011963
3 *1086:A *1086:B 7.72537e-06
4 *1086:A *1131:B 1.33743e-05
5 *1086:A *392:10 1.87637e-06
6 *1086:A *392:12 5.64653e-05
7 *1086:A *434:8 0
8 *1086:C1 *1086:A 6.32202e-06
9 *1131:C1 *1086:A 0
*RES
1 *1084:ZN *1086:A 35.75 
*END

*D_NET *391 0.00142545
*CONN
*I *1086:B I *D OAI211_X1
*I *1085:ZN O *D AOI22_X1
*CAP
1 *1086:B 4.62565e-06
2 *1085:ZN 2.14524e-05
3 *391:10 0.000455977
4 *391:8 0.000472804
5 *1086:B *392:10 7.19036e-06
6 *391:8 *1085:A1 3.90891e-05
7 *391:8 *1085:B2 2.66727e-05
8 *391:10 *947:A 4.89222e-06
9 *391:10 *955:A 0
10 *391:10 *1131:B 0.00012486
11 *391:10 *473:70 7.27362e-05
12 *391:10 *473:89 0
13 *391:10 *681:10 2.82814e-05
14 *391:10 *684:10 1.72426e-05
15 *1086:A *1086:B 7.72537e-06
16 *1086:C1 *391:10 4.24402e-05
17 *262:10 *391:10 9.94613e-05
*RES
1 *1085:ZN *391:8 13.75 
2 *391:8 *391:10 58.6072 
3 *391:10 *1086:B 10.75 
*END

*D_NET *392 0.00135998
*CONN
*I *1088:B2 I *D AOI21_X1
*I *1086:ZN O *D OAI211_X1
*CAP
1 *1088:B2 8.83802e-05
2 *1086:ZN 2.93507e-05
3 *392:12 0.000576242
4 *392:10 0.000517213
5 *1088:B2 *1090:B1 1.37673e-05
6 *1088:B2 *1090:B2 0
7 *392:10 *498:22 4.32144e-07
8 *392:10 *498:28 8.17504e-06
9 *392:12 *940:A 0
10 *392:12 *1084:A2 0
11 *392:12 *1272:A2 2.14591e-06
12 *392:12 *473:49 0
13 *392:12 *473:64 0
14 *1086:A *392:10 1.87637e-06
15 *1086:A *392:12 5.64653e-05
16 *1086:B *392:10 7.19036e-06
17 *1086:C1 *392:12 4.16464e-05
18 *10:23 *1088:B2 1.27802e-05
19 *375:90 *1088:B2 4.31185e-06
*RES
1 *1086:ZN *392:10 13.1786 
2 *392:10 *392:12 53.1786 
3 *392:12 *1088:B2 19.75 
*END

*D_NET *393 0.00251413
*CONN
*I *1090:B2 I *D AOI21_X1
*I *1087:ZN O *D AOI222_X1
*CAP
1 *1090:B2 0.000234778
2 *1087:ZN 0.000317245
3 *393:16 0.000608503
4 *393:8 0.00069097
5 *1090:B2 *1090:B1 1.40196e-05
6 *1090:B2 *1372:CK 6.36738e-07
7 *1090:B2 *1374:CK 1.77914e-05
8 *393:8 *1148:B2 0
9 *393:8 *1150:A 0
10 *393:8 *462:17 1.82809e-05
11 *393:8 *462:19 6.20514e-05
12 *393:16 *1149:A 0
13 *393:16 *1150:A 1.88444e-05
14 *393:16 *1163:A 9.62051e-07
15 *393:16 *1163:B2 3.30471e-05
16 *393:16 *1372:CK 0
17 *393:16 *827:148 0
18 *393:16 *827:173 0.000104037
19 *1088:B2 *1090:B2 0
20 *1372:D *393:16 9.57948e-06
21 *10:23 *1090:B2 0
22 *11:8 *393:16 5.40525e-06
23 *12:19 *1090:B2 0.000145156
24 *375:36 *1090:B2 0
25 *375:36 *393:16 3.87617e-05
26 *375:42 *393:16 2.96067e-05
27 *375:54 *393:8 0
28 *375:54 *393:16 0.000164452
*RES
1 *1087:ZN *393:8 40.4286 
2 *393:8 *393:16 48.9286 
3 *393:16 *1090:B2 32.8572 
*END

*D_NET *394 0.000203162
*CONN
*I *1090:B1 I *D AOI21_X1
*I *1088:ZN O *D AOI21_X1
*CAP
1 *1090:B1 7.24529e-05
2 *1088:ZN 7.24529e-05
3 *1090:B1 *1090:A 7.16188e-07
4 *1088:B2 *1090:B1 1.37673e-05
5 *1090:B2 *1090:B1 1.40196e-05
6 *1103:B1 *1090:B1 1.59858e-05
7 *375:90 *1090:B1 1.37673e-05
*RES
1 *1088:ZN *1090:B1 28.9643 
*END

*D_NET *395 0.000357576
*CONN
*I *1090:A I *D AOI21_X1
*I *1089:ZN O *D OAI21_X1
*CAP
1 *1090:A 0.000147597
2 *1089:ZN 0.000147597
3 *1090:A *1103:B2 3.19164e-07
4 *1090:A *1377:CK 2.07643e-05
5 *1090:B1 *1090:A 7.16188e-07
6 *1103:B1 *1090:A 2.49203e-05
7 *1377:D *1090:A 0
8 *10:23 *1090:A 1.56618e-05
9 *12:19 *1090:A 0
*RES
1 *1089:ZN *1090:A 26.8571 
*END

*D_NET *396 0.000382176
*CONN
*I *1093:A I *D OAI211_X1
*I *1091:ZN O *D NAND3_X1
*CAP
1 *1093:A 0.000131103
2 *1091:ZN 0.000131103
3 *1093:A *1091:A2 1.11168e-06
4 *1093:A *1093:B 2.75346e-06
5 *1093:A *489:31 1.05571e-05
6 *1093:A *489:54 7.62827e-05
7 *1093:A *823:154 1.05232e-05
8 *1093:C1 *1093:A 1.87418e-05
*RES
1 *1091:ZN *1093:A 36.6786 
*END

*D_NET *397 0.00186214
*CONN
*I *1093:B I *D OAI211_X1
*I *1092:ZN O *D AOI22_X1
*CAP
1 *1093:B 0.000136316
2 *1092:ZN 9.00931e-05
3 *397:10 0.000500568
4 *397:8 0.000454345
5 *1093:B *1067:C2 0
6 *397:10 *1124:A1 1.91667e-07
7 *397:10 *827:29 0.00013128
8 *397:10 *827:65 0.000299509
9 *1067:A *397:10 0
10 *1093:A *1093:B 2.75346e-06
11 *1225:B2 *397:10 1.08031e-05
12 *363:16 *397:8 6.90144e-05
13 *365:20 *397:8 0.000167264
*RES
1 *1092:ZN *397:8 25.75 
2 *397:8 *397:10 45.7143 
3 *397:10 *1093:B 23.25 
*END

*D_NET *399 0.00144601
*CONN
*I *1095:A I *D OAI221_X1
*I *1094:ZN O *D AOI22_X1
*CAP
1 *1095:A 0.000122271
2 *1094:ZN 6.36824e-05
3 *399:18 0.000517649
4 *399:12 0.000459061
5 *1095:A *509:18 1.86514e-05
6 *1095:A *836:42 2.96955e-05
7 *1095:A *836:122 3.19164e-06
8 *399:12 *1094:A1 0
9 *399:12 *511:10 1.42171e-05
10 *399:12 *834:40 7.02617e-06
11 *399:18 *922:A 3.90865e-05
12 *399:18 *1292:B1 0
13 *399:18 *1388:CK 8.61538e-05
14 *399:18 *509:78 3.38735e-05
15 *399:18 *834:40 0
16 *399:18 *836:38 1.45281e-05
17 *399:18 *836:122 2.52965e-06
18 *1095:B2 *1095:A 7.16188e-07
19 *1095:C1 *1095:A 7.16188e-07
20 *1292:B2 *399:18 0
21 *1388:D *399:18 1.38237e-05
22 *386:8 *1095:A 1.91421e-05
*RES
1 *1094:ZN *399:12 12.8571 
2 *399:12 *399:18 45.4286 
3 *399:18 *1095:A 29.0714 
*END

*D_NET *401 0.000550517
*CONN
*I *1098:A I *D OAI211_X1
*I *1096:ZN O *D NAND3_X1
*CAP
1 *1098:A 0.000260715
2 *1096:ZN 0.000260715
3 *1098:A *1096:A2 7.14654e-06
4 *1098:A *402:12 2.75346e-06
5 *1098:A *417:12 5.72955e-06
6 *1098:A *456:22 0
7 *1098:A *823:25 1.34578e-05
*RES
1 *1096:ZN *1098:A 47.25 
*END

*D_NET *402 0.001002
*CONN
*I *1098:B I *D OAI211_X1
*I *1097:ZN O *D AOI22_X1
*CAP
1 *1098:B 0
2 *1097:ZN 0.00020656
3 *402:12 0.00020656
4 *402:12 *417:12 3.09143e-06
5 *402:12 *474:275 0.000439298
6 *402:12 *474:290 3.34047e-05
7 *1098:A *402:12 2.75346e-06
8 *1098:C1 *402:12 4.16485e-05
9 *1184:A1 *402:12 6.86795e-05
10 *1360:D *402:12 0
*RES
1 *1097:ZN *402:12 47.2143 
2 *402:12 *1098:B 5 
*END

*D_NET *404 0.00048229
*CONN
*I *1101:A I *D OAI211_X1
*I *1099:ZN O *D NAND3_X1
*CAP
1 *1101:A 0.000116239
2 *1099:ZN 0.000116239
3 *1101:A *474:119 0
4 *1101:A *851:61 1.35664e-06
5 *1071:A *1101:A 0.000103705
6 *1071:C1 *1101:A 9.16146e-06
7 *1101:C1 *1101:A 4.54155e-05
8 *1434:D *1101:A 6.93684e-06
9 *378:10 *1101:A 8.32372e-05
*RES
1 *1099:ZN *1101:A 39 
*END

*D_NET *405 0.000858444
*CONN
*I *1101:B I *D OAI211_X1
*I *1100:ZN O *D AOI22_X1
*CAP
1 *1101:B 0
2 *1100:ZN 0.000326994
3 *405:10 0.000326994
4 *405:10 *953:A 0
5 *405:10 *956:A 4.15447e-05
6 *405:10 *474:140 1.21873e-05
7 *405:10 *498:10 5.54369e-05
8 *405:10 *825:28 2.83676e-05
9 *405:10 *827:230 0
10 *1071:C1 *405:10 6.32202e-06
11 *1282:B2 *405:10 1.0495e-05
12 *1434:D *405:10 0
13 *1440:D *405:10 5.01029e-05
14 *260:10 *405:10 0
15 *377:18 *405:10 0
*RES
1 *1100:ZN *405:10 48.25 
2 *405:10 *1101:B 10 
*END

*D_NET *406 0.00171084
*CONN
*I *1103:B2 I *D AOI21_X1
*I *1101:ZN O *D OAI211_X1
*CAP
1 *1103:B2 4.90342e-06
2 *1101:ZN 3.64415e-05
3 *406:10 0.000358221
4 *406:8 0.000389759
5 *406:10 *938:A 0
6 *406:10 *1069:A2 0
7 *406:10 *1105:B1 4.12911e-06
8 *406:10 *499:97 0
9 *406:10 *827:215 0.000363472
10 *406:10 *827:230 0.000533058
11 *1071:C1 *406:8 6.07323e-06
12 *1071:C1 *406:10 0
13 *1090:A *1103:B2 3.19164e-07
14 *1103:B1 *1103:B2 1.21774e-06
15 *1271:B2 *406:10 0
16 *1377:D *1103:B2 8.26038e-06
17 *378:20 *406:10 4.98192e-06
*RES
1 *1101:ZN *406:8 13.75 
2 *406:8 *406:10 53.1786 
3 *406:10 *1103:B2 10.75 
*END

*D_NET *408 0.00037452
*CONN
*I *1105:B1 I *D AOI21_X1
*I *1103:ZN O *D AOI21_X1
*CAP
1 *1105:B1 0.000167048
2 *1103:ZN 0.000167048
3 *1105:B1 *1105:A 2.75346e-06
4 *1105:B1 *1376:CK 4.12459e-06
5 *1075:B1 *1105:B1 0
6 *12:19 *1105:B1 0
7 *378:20 *1105:B1 2.94155e-05
8 *406:10 *1105:B1 4.12911e-06
*RES
1 *1103:ZN *1105:B1 38.2857 
*END

*D_NET *409 0.000261585
*CONN
*I *1105:A I *D AOI21_X1
*I *1104:ZN O *D OAI21_X1
*CAP
1 *1105:A 8.39965e-05
2 *1104:ZN 8.39965e-05
3 *1105:A *1376:CK 5.06354e-05
4 *1105:A *827:119 6.0887e-06
5 data_out[4] *1105:A 0
6 *1105:B1 *1105:A 2.75346e-06
7 *1376:D *1105:A 3.41146e-05
8 *12:19 *1105:A 0
*RES
1 *1104:ZN *1105:A 20.9286 
*END

*D_NET *410 0.000179187
*CONN
*I *1108:A I *D OAI211_X1
*I *1106:ZN O *D NAND3_X1
*CAP
1 *1108:A 6.22286e-05
2 *1106:ZN 6.22286e-05
3 *1108:A *1106:A2 0
4 *1108:A *1106:A3 4.76412e-06
5 *1108:A *1118:B2 4.32214e-05
6 *1108:C1 *1108:A 6.74466e-06
*RES
1 *1106:ZN *1108:A 27.8929 
*END

*D_NET *411 0.00648866
*CONN
*I *1108:B I *D OAI211_X1
*I *1107:ZN O *D AOI22_X1
*CAP
1 *1108:B 0
2 *1107:ZN 0
3 *411:30 0.00115404
4 *411:24 0.0013395
5 *411:20 0.000456395
6 *411:16 0.000681368
7 *411:12 0.00061535
8 *411:6 0.000811459
9 *411:4 0.000606541
10 *411:6 *1517:A3 0
11 *411:6 *1519:D 0
12 *411:6 *476:16 9.96886e-05
13 *411:6 *476:20 0
14 *411:6 *811:12 1.34578e-05
15 *411:6 *811:19 0
16 *411:6 *837:30 0
17 *411:12 *474:10 0
18 *411:12 *476:14 0.000123225
19 *411:16 *1172:B1 0
20 *411:16 *468:8 0
21 *411:16 *468:10 0
22 *411:16 *468:63 0
23 *411:16 *468:74 0
24 *411:20 *1049:A 2.09547e-05
25 *411:20 *1330:A1 6.05044e-05
26 *411:24 *1330:A1 7.14054e-05
27 *411:24 *1659:A 0
28 *411:24 *518:8 0.000325826
29 *411:30 *473:28 1.85011e-05
30 *411:30 *828:189 3.31912e-06
31 *902:B2 *411:6 0
32 *1029:A *411:16 1.16867e-05
33 *1172:A1 *411:12 6.92191e-05
34 *1237:B2 *411:30 6.21255e-06
35 *30:12 *411:6 0
36 *31:12 *411:6 0
*RES
1 *1107:ZN *411:4 5 
2 *411:4 *411:6 64.75 
3 *411:6 *411:12 38.0714 
4 *411:12 *411:16 45.75 
5 *411:16 *411:20 32.3929 
6 *411:20 *411:24 32.25 
7 *411:24 *411:30 49.3471 
8 *411:30 *1108:B 10 
*END

*D_NET *412 0.000603147
*CONN
*I *1118:B2 I *D AOI221_X1
*I *1108:ZN O *D OAI211_X1
*CAP
1 *1118:B2 0.000226664
2 *1108:ZN 0.000226664
3 *1118:B2 *1106:A2 0
4 *1118:B2 *1106:A3 8.25444e-06
5 *1118:B2 *1118:C1 2.61219e-06
6 *1118:B2 *523:14 0
7 *1118:B2 *823:114 4.18909e-05
8 *1118:B2 *823:129 2.24822e-06
9 *1087:C2 *1118:B2 6.99525e-06
10 *1108:A *1118:B2 4.32214e-05
11 *1108:C1 *1118:B2 4.4596e-05
*RES
1 *1108:ZN *1118:B2 48.8214 
*END

*D_NET *413 0.00151717
*CONN
*I *1110:A I *D OAI221_X1
*I *1109:ZN O *D AOI22_X1
*CAP
1 *1110:A 8.35497e-05
2 *1109:ZN 8.71307e-06
3 *413:8 0.000518175
4 *413:6 0.000443338
5 *1110:A *931:A 2.64589e-05
6 *1110:A *414:8 1.62705e-06
7 *413:8 *1311:B1 3.48071e-05
8 *413:8 *1341:A2 3.51536e-06
9 *413:8 *509:37 4.15369e-06
10 *413:8 *825:82 0.000264268
11 *1110:B2 *1110:A 1.57087e-05
12 *1110:C1 *1110:A 0
13 *1309:B2 *413:8 4.70243e-06
14 *1311:B2 *413:8 2.83077e-06
15 *385:10 *413:8 0.000105322
*RES
1 *1109:ZN *413:6 5.92857 
2 *413:6 *413:8 59.75 
3 *413:8 *1110:A 24.4286 
*END

*D_NET *414 0.00229466
*CONN
*I *1117:A2 I *D AOI22_X1
*I *1110:ZN O *D OAI221_X1
*CAP
1 *1117:A2 0.000216066
2 *1110:ZN 0
3 *414:8 0.00107663
4 *414:6 0.000860559
5 *1117:A2 *420:10 7.11316e-05
6 *1117:A2 *473:45 0
7 *414:8 *1392:CK 6.76399e-05
8 *414:8 *516:16 0
9 *414:8 *516:26 1.00706e-06
10 *1110:A *414:8 1.62705e-06
*RES
1 *1110:ZN *414:6 10 
2 *414:6 *414:8 93.7858 
3 *414:8 *1117:A2 30.68 
*END

*D_NET *415 0.000460444
*CONN
*I *1113:A I *D OAI211_X1
*CAP
1 *1113:A 2.76406e-05
2 *415:9 0.000186304
3 *415:2 0.000213945
4 *1113:A *416:12 7.72792e-06
5 *1113:A *823:29 5.44193e-06
6 *415:9 *416:12 2.61812e-06
7 *415:9 *730:16 7.14654e-06
8 *389:14 *1113:A 9.62001e-06
*RES
1 *415:2 *415:9 34.25 
2 *415:2 *1113:A 8.25 
*END

*D_NET *416 0.000932856
*CONN
*I *1113:B I *D OAI211_X1
*I *1112:ZN O *D AOI22_X1
*CAP
1 *1113:B 0
2 *1112:ZN 0.000259605
3 *416:12 0.000259605
4 *416:12 *1112:A1 8.72084e-07
5 *416:12 *832:12 0
6 *416:12 *832:32 3.84081e-05
7 *416:12 *832:38 0.00020819
8 *1113:A *416:12 7.72792e-06
9 *1113:C1 *416:12 7.71783e-05
10 *1186:A1 *416:12 6.81816e-05
11 *1359:D *416:12 2.74207e-06
12 *389:14 *416:12 7.72792e-06
13 *415:9 *416:12 2.61812e-06
*RES
1 *1112:ZN *416:12 48.5714 
2 *416:12 *1113:B 5 
*END

*D_NET *417 0.00132468
*CONN
*I *1118:C1 I *D AOI221_X1
*I *1113:ZN O *D OAI211_X1
*CAP
1 *1118:C1 0.000313497
2 *1113:ZN 0.000224697
3 *417:12 0.000538194
4 *1118:C1 *1120:B1 7.19267e-06
5 *1118:C1 *1194:A1 4.33544e-05
6 *1118:C1 *1335:A2 8.30282e-06
7 *1118:C1 *1335:C2 1.32348e-05
8 *1118:C1 *523:14 4.26635e-05
9 *417:12 *1194:A1 0
10 *417:12 *474:290 1.88349e-05
11 *417:12 *823:14 0
12 *417:12 *823:25 0
13 *1087:C2 *1118:C1 4.75508e-06
14 *1098:A *417:12 5.72955e-06
15 *1118:B2 *1118:C1 2.61219e-06
16 *389:14 *417:12 9.85173e-05
17 *402:12 *417:12 3.09143e-06
*RES
1 *1113:ZN *417:12 40.4286 
2 *417:12 *1118:C1 48.8214 
*END

*D_NET *418 0.00033385
*CONN
*I *1116:A I *D OAI211_X1
*I *1114:ZN O *D NAND3_X1
*CAP
1 *1116:A 0.000154288
2 *1114:ZN 0.000154288
3 *1116:A *1116:B 7.19036e-06
4 *1116:A *420:8 8.43215e-07
5 *1116:A *420:10 0
6 *1116:C1 *1116:A 1.72405e-05
*RES
1 *1114:ZN *1116:A 36.6072 
*END

*D_NET *419 0.00125358
*CONN
*I *1116:B I *D OAI211_X1
*I *1115:ZN O *D AOI22_X1
*CAP
1 *1116:B 0.000116217
2 *1115:ZN 0
3 *419:8 0.000602342
4 *419:6 0.000486124
5 *1116:B *1431:CK 0
6 *1116:B *420:8 6.91187e-06
7 *419:8 *1115:A2 2.80666e-05
8 *419:8 *501:8 0
9 *419:8 *825:80 6.72709e-06
10 *1116:A *1116:B 7.19036e-06
11 *1431:D *1116:B 0
*RES
1 *1115:ZN *419:6 10 
2 *419:6 *419:8 55.2143 
3 *419:8 *1116:B 21.75 
*END

*D_NET *420 0.00108035
*CONN
*I *1117:B1 I *D AOI22_X1
*I *1116:ZN O *D OAI211_X1
*CAP
1 *1117:B1 6.11389e-06
2 *1116:ZN 3.69049e-05
3 *420:10 0.000435859
4 *420:8 0.00046665
5 *420:10 *1120:A 1.52083e-06
6 *420:10 *1120:B2 1.21072e-05
7 *420:10 *501:8 3.86564e-05
8 *1116:A *420:8 8.43215e-07
9 *1116:A *420:10 0
10 *1116:B *420:8 6.91187e-06
11 *1117:A2 *420:10 7.11316e-05
12 *1117:B2 *1117:B1 3.65322e-06
*RES
1 *1116:ZN *420:8 13.75 
2 *420:8 *420:10 50.4643 
3 *420:10 *1117:B1 10.75 
*END

*D_NET *421 0.000145878
*CONN
*I *1120:B2 I *D AOI21_X1
*I *1117:ZN O *D AOI22_X1
*CAP
1 *1120:B2 6.18207e-05
2 *1117:ZN 6.18207e-05
3 *1120:B2 *1120:A 1.01298e-05
4 *420:10 *1120:B2 1.21072e-05
*RES
1 *1117:ZN *1120:B2 27.3571 
*END

*D_NET *422 0.000492986
*CONN
*I *1120:B1 I *D AOI21_X1
*I *1118:ZN O *D AOI221_X1
*CAP
1 *1120:B1 0.000215346
2 *1118:ZN 0.000215346
3 *1120:B1 *1120:A 2.75346e-06
4 *1120:B1 *462:17 3.50761e-05
5 *1087:C2 *1120:B1 1.5084e-05
6 *1118:C1 *1120:B1 7.19267e-06
7 *386:16 *1120:B1 2.18774e-06
*RES
1 *1118:ZN *1120:B1 44.6429 
*END

*D_NET *423 0.000284959
*CONN
*I *1120:A I *D AOI21_X1
*I *1119:ZN O *D OAI21_X1
*CAP
1 *1120:A 0.000111917
2 *1119:ZN 0.000111917
3 *1117:B2 *1120:A 4.39667e-05
4 *1120:B1 *1120:A 2.75346e-06
5 *1120:B2 *1120:A 1.01298e-05
6 *1375:D *1120:A 2.75346e-06
7 *13:12 *1120:A 0
8 *420:10 *1120:A 1.52083e-06
*RES
1 *1119:ZN *1120:A 32.9643 
*END

*D_NET *424 0.000342514
*CONN
*I *1123:A I *D OAI211_X1
*I *1121:ZN O *D NAND3_X1
*CAP
1 *1123:A 0.000113954
2 *1121:ZN 0.000113954
3 *1123:A *1121:A2 1.34578e-05
4 *1123:A *1123:B 5.56073e-05
5 *1123:A *705:10 4.55424e-05
6 *1390:D *1123:A 0
7 *1398:D *1123:A 0
8 *240:12 *1123:A 0
*RES
1 *1121:ZN *1123:A 24.1786 
*END

*D_NET *425 0.00237543
*CONN
*I *1123:B I *D OAI211_X1
*I *1122:ZN O *D AOI22_X1
*CAP
1 *1123:B 8.37875e-05
2 *1122:ZN 0.000779557
3 *425:12 0.000863345
4 *425:12 *1122:A1 2.10559e-05
5 *425:12 *1137:B1 0.000198435
6 *425:12 *476:202 0.000129182
7 *425:12 *476:235 2.90418e-05
8 *425:12 *476:252 0.000209956
9 *425:12 *825:127 5.46113e-06
10 *1123:A *1123:B 5.56073e-05
11 *1123:C1 *1123:B 0
12 *240:12 *1123:B 0
13 *367:14 *425:12 0
*RES
1 *1122:ZN *425:12 49.9886 
2 *425:12 *1123:B 24.8214 
*END

*D_NET *427 0.00598505
*CONN
*I *1125:A I *D OAI221_X1
*I *1124:ZN O *D AOI22_X1
*CAP
1 *1125:A 0.000123548
2 *1124:ZN 1.17341e-05
3 *427:38 0.000870102
4 *427:30 0.0009637
5 *427:26 0.000434171
6 *427:22 0.000422139
7 *427:18 0.00032121
8 *427:12 0.000420332
9 *427:10 0.00031597
10 *1125:A *989:A 0
11 *1125:A *1125:B1 2.75346e-06
12 *1125:A *840:88 0
13 *1125:A *840:104 0
14 *427:10 *476:24 4.24402e-05
15 *427:10 *487:30 9.22998e-06
16 *427:12 *1092:A1 2.47331e-05
17 *427:12 *1092:B2 0
18 *427:12 *441:16 0.000456639
19 *427:12 *476:47 0
20 *427:12 *747:8 0
21 *427:18 *441:20 0
22 *427:18 *476:51 0.000121208
23 *427:22 *476:51 0.000383684
24 *427:30 *476:59 0.00062745
25 *427:30 *827:88 1.42092e-05
26 *427:38 *476:77 0.000131484
27 *427:38 *840:86 1.82195e-05
28 *1238:B2 *1125:A 7.16188e-07
29 *1454:D *1125:A 1.14945e-05
30 *363:16 *427:12 0.000256199
31 *363:18 *427:12 1.68643e-06
*RES
1 *1124:ZN *427:10 17.2857 
2 *427:10 *427:12 48.25 
3 *427:12 *427:18 22.1786 
4 *427:18 *427:22 35.2143 
5 *427:22 *427:26 27.75 
6 *427:26 *427:30 41.2857 
7 *427:30 *427:38 42.4871 
8 *427:38 *1125:A 17.75 
*END

*D_NET *428 0.000624992
*CONN
*I *1132:A2 I *D AOI22_X1
*I *1125:ZN O *D OAI221_X1
*CAP
1 *1132:A2 0.000275992
2 *1125:ZN 0.000275992
3 *1132:A2 *1132:B1 1.39839e-06
4 *1132:A2 *434:8 4.26902e-05
5 *1068:A1 *1132:A2 0
6 *1132:B2 *1132:A2 3.19164e-07
7 *1374:D *1132:A2 4.77786e-06
8 *281:10 *1132:A2 2.3823e-05
9 *329:8 *1132:A2 0
*RES
1 *1125:ZN *1132:A2 49.3214 
*END

*D_NET *429 0.000376433
*CONN
*I *1128:A I *D OAI211_X1
*I *1126:ZN O *D NAND3_X1
*CAP
1 *1128:A 0.000186294
2 *1126:ZN 0.000186294
3 *1128:A *1128:B 2.75346e-06
4 *1128:A *1128:C2 2.16072e-07
5 *1128:A *443:12 0
6 *1128:A *851:127 8.762e-07
7 *367:18 *1128:A 0
*RES
1 *1126:ZN *1128:A 38.75 
*END

*D_NET *430 0.00111916
*CONN
*I *1128:B I *D OAI211_X1
*I *1127:ZN O *D AOI22_X1
*CAP
1 *1128:B 5.455e-05
2 *1127:ZN 0
3 *430:10 0.000437494
4 *430:6 0.000382944
5 *1128:B *1128:C2 1.28122e-06
6 *1128:B *476:161 0
7 *430:10 *1128:C2 0
8 *430:10 *470:46 0
9 *430:10 *476:163 0.000132728
10 *430:10 *823:52 0
11 *430:10 *830:37 0
12 *1128:A *1128:B 2.75346e-06
13 *1188:A1 *430:10 0
14 *365:114 *430:10 0.000107413
*RES
1 *1127:ZN *430:6 10 
2 *430:6 *430:10 49.3572 
3 *430:10 *1128:B 10.25 
*END

*D_NET *432 0.000279743
*CONN
*I *1131:A I *D OAI211_X1
*I *1129:ZN O *D NAND3_X1
*CAP
1 *1131:A 0.00011001
2 *1129:ZN 0.00011001
3 *1131:A *1131:B 2.39679e-06
4 *1131:A *1430:CK 0
5 *1131:A *434:8 5.2408e-05
6 *1131:A *498:38 0
7 *1131:C1 *1131:A 4.9192e-06
*RES
1 *1129:ZN *1131:A 34.3929 
*END

*D_NET *433 0.00131909
*CONN
*I *1131:B I *D OAI211_X1
*I *1130:ZN O *D AOI22_X1
*CAP
1 *1131:B 0.000233862
2 *1130:ZN 5.16536e-05
3 *433:8 0.000285515
4 *1131:B *947:A 2.97122e-05
5 *1131:B *1266:A1 7.87306e-06
6 *1131:B *473:70 0.000529388
7 *1131:B *498:28 0
8 *433:8 *947:A 2.05092e-05
9 *433:8 *1130:B2 8.58953e-06
10 *433:8 *844:52 4.48636e-06
11 *433:8 *844:65 0
12 *1086:A *1131:B 1.33743e-05
13 *1086:C1 *1131:B 1.20752e-06
14 *1131:A *1131:B 2.39679e-06
15 *1131:C1 *1131:B 3.34352e-06
16 *1414:D *433:8 3.6321e-07
17 *268:8 *1131:B 1.95562e-06
18 *391:10 *1131:B 0.00012486
*RES
1 *1130:ZN *433:8 15.75 
2 *433:8 *1131:B 49.4643 
*END

*D_NET *434 0.00154788
*CONN
*I *1132:B1 I *D AOI22_X1
*I *1131:ZN O *D OAI211_X1
*CAP
1 *1132:B1 4.88613e-06
2 *1131:ZN 0
3 *434:8 0.000459214
4 *434:6 0.000454328
5 *434:8 *940:A 8.08846e-05
6 *434:8 *1084:A2 0.000115914
7 *434:8 *1129:A2 9.36313e-05
8 *434:8 *1134:A 7.64528e-05
9 *434:8 *1135:B2 0
10 *434:8 *1374:CK 0.000157813
11 *434:8 *1430:CK 0
12 *434:8 *476:222 0
13 *1086:A *434:8 0
14 *1131:A *434:8 5.2408e-05
15 *1132:A2 *1132:B1 1.39839e-06
16 *1132:A2 *434:8 4.26902e-05
17 *1132:B2 *1132:B1 8.26038e-06
18 *1374:D *434:8 0
19 *1425:D *434:8 0
*RES
1 *1131:ZN *434:6 10 
2 *434:6 *434:8 59.9643 
3 *434:8 *1132:B1 10.75 
*END

*D_NET *435 0.000101148
*CONN
*I *1135:B2 I *D AOI21_X1
*I *1132:ZN O *D AOI22_X1
*CAP
1 *1135:B2 4.96144e-05
2 *1132:ZN 4.96144e-05
3 *1135:B2 *1135:A 0
4 *1374:D *1135:B2 1.91954e-06
5 *17:16 *1135:B2 0
6 *434:8 *1135:B2 0
*RES
1 *1132:ZN *1135:B2 24.8571 
*END

*D_NET *437 0.000106386
*CONN
*I *1135:A I *D AOI21_X1
*I *1134:ZN O *D OAI21_X1
*CAP
1 *1135:A 3.81295e-05
2 *1134:ZN 3.81295e-05
3 *1135:B2 *1135:A 0
4 *1374:D *1135:A 2.31008e-05
5 *375:36 *1135:A 7.02617e-06
*RES
1 *1134:ZN *1135:A 14.6786 
*END

*D_NET *438 0.000226149
*CONN
*I *1138:A I *D OAI211_X1
*I *1136:ZN O *D NAND3_X1
*CAP
1 *1138:A 5.37399e-05
2 *1136:ZN 5.37399e-05
3 *1138:A *1136:A2 8.69668e-06
4 *1138:A *1136:A3 5.79516e-06
5 *1138:A *1138:B 6.0406e-05
6 *1138:A *460:18 4.37715e-05
7 *1138:A *851:93 0
*RES
1 *1136:ZN *1138:A 28.0357 
*END

*D_NET *439 0.00193581
*CONN
*I *1138:B I *D OAI211_X1
*I *1137:ZN O *D AOI22_X1
*CAP
1 *1138:B 0.000168501
2 *1137:ZN 4.67957e-05
3 *439:12 0.00081107
4 *439:10 0.000689365
5 *1138:B *460:18 1.12734e-05
6 *1138:B *851:93 1.87418e-05
7 *439:10 *1137:A1 1.55645e-05
8 *439:10 *688:10 1.65284e-05
9 *439:10 *712:12 0
10 *439:12 *925:A 4.01262e-05
11 *439:12 *933:A 6.07323e-06
12 *439:12 *1303:A1 7.35445e-06
13 *439:12 *1405:CK 0
14 *439:12 *1663:A 0
15 *439:12 *688:10 3.35822e-05
16 *439:12 *828:243 0
17 *1060:A *439:12 0
18 *1060:B *439:12 0
19 *1123:C1 *439:12 0
20 *1138:A *1138:B 6.0406e-05
21 *1299:B2 *439:12 0
22 *1398:D *439:12 0
23 *1402:D *439:12 0
24 *1405:D *439:12 1.04284e-05
25 *386:14 *439:12 0
*RES
1 *1137:ZN *439:10 20 
2 *439:10 *439:12 66.25 
3 *439:12 *1138:B 34.6786 
*END

*D_NET *440 0.00199029
*CONN
*I *1147:A2 I *D AOI222_X1
*I *1138:ZN O *D OAI211_X1
*CAP
1 *1147:A2 8.72825e-05
2 *1138:ZN 0.000311931
3 *440:26 0.00055089
4 *440:10 0.000775539
5 *1147:A2 *1147:C1 6.85774e-07
6 *1147:A2 *1150:B2 3.58094e-06
7 *1147:A2 *442:12 1.21774e-06
8 *1147:A2 *462:19 0
9 *440:10 *1136:A3 0
10 *440:10 *460:28 0
11 *440:10 *476:216 2.26283e-05
12 *440:10 *823:12 1.49791e-05
13 *440:10 *851:93 5.19749e-06
14 *440:26 *1147:C1 4.38788e-05
15 *440:26 *519:20 9.21709e-05
16 *440:26 *823:12 6.46595e-05
17 *1313:B2 *440:10 0
18 *1:32 *440:26 1.56471e-05
19 *379:10 *440:26 0
20 *384:28 *1147:A2 0
*RES
1 *1138:ZN *440:10 45.5893 
2 *440:10 *440:26 46.5564 
3 *440:26 *1147:A2 13.75 
*END

*D_NET *441 0.00652152
*CONN
*I *1140:A I *D OAI221_X1
*I *1139:ZN O *D AOI22_X1
*CAP
1 *1140:A 7.99537e-05
2 *1139:ZN 3.13662e-05
3 *441:32 0.00102197
4 *441:26 0.00129766
5 *441:20 0.000953452
6 *441:18 0.0005978
7 *441:16 0.000401697
8 *441:14 0.000632424
9 *441:10 0.000262094
10 *1140:A *1140:B1 2.75346e-06
11 *1140:A *491:58 1.08355e-06
12 *441:10 *1139:A1 1.52083e-06
13 *441:10 *837:16 0
14 *441:14 *476:20 0.00013958
15 *441:16 *476:20 0.000135196
16 *441:20 *474:94 0
17 *441:20 *474:98 0
18 *441:20 *825:8 3.18816e-05
19 *441:20 *839:104 0
20 *441:20 *839:126 0
21 *441:26 *765:10 0
22 *441:26 *826:6 0
23 *441:26 *851:6 6.87788e-06
24 *441:26 *851:12 3.58364e-05
25 *441:32 *476:77 0.000220447
26 *1140:B2 *1140:A 2.00494e-05
27 *1140:C1 *1140:A 1.07746e-05
28 *1230:B2 *1140:A 9.5934e-06
29 *1239:B2 *1140:A 7.66675e-07
30 *363:18 *441:14 3.36051e-05
31 *363:18 *441:16 2.85468e-05
32 *363:20 *441:14 0.000107957
33 *427:12 *441:16 0.000456639
34 *427:18 *441:20 0
*RES
1 *1139:ZN *441:10 17.9643 
2 *441:10 *441:14 33.1786 
3 *441:14 *441:16 55.25 
4 *441:16 *441:18 5 
5 *441:18 *441:20 66.0715 
6 *441:20 *441:26 46.25 
7 *441:26 *441:32 45.0186 
8 *441:32 *1140:A 24.3214 
*END

*D_NET *442 0.000611917
*CONN
*I *1147:B1 I *D AOI222_X1
*I *1140:ZN O *D OAI221_X1
*CAP
1 *1147:B1 0
2 *1140:ZN 0.000302485
3 *442:12 0.000302485
4 *442:12 *1147:C1 2.75346e-06
5 *442:12 *1150:B2 0
6 *442:12 *1237:B1 2.97556e-06
7 *1147:A2 *442:12 1.21774e-06
8 *384:28 *442:12 0
*RES
1 *1140:ZN *442:12 45.7857 
2 *442:12 *1147:B1 5 
*END

*D_NET *443 0.000670861
*CONN
*I *1143:A I *D OAI211_X1
*I *1141:ZN O *D NAND3_X1
*CAP
1 *1143:A 0
2 *1141:ZN 0.000285814
3 *443:12 0.000285814
4 *443:12 *1141:A2 7.14654e-06
5 *443:12 *1143:B 7.21306e-05
6 *443:12 *444:8 3.48838e-06
7 *443:12 *823:52 1.64688e-05
8 *1128:A *443:12 0
*RES
1 *1141:ZN *443:12 47.7857 
2 *443:12 *1143:A 5 
*END

*D_NET *444 0.000915517
*CONN
*I *1143:B I *D OAI211_X1
*I *1142:ZN O *D AOI22_X1
*CAP
1 *1143:B 7.19182e-05
2 *1142:ZN 0.000336407
3 *444:8 0.000408325
4 *1143:B *823:52 1.60494e-06
5 *444:8 *1142:A1 6.99525e-06
6 *444:8 *736:12 2.30746e-06
7 *1190:A1 *444:8 4.33639e-06
8 *1357:D *444:8 8.00263e-06
9 *443:12 *1143:B 7.21306e-05
10 *443:12 *444:8 3.48838e-06
*RES
1 *1142:ZN *444:8 46.2143 
2 *444:8 *1143:B 18.75 
*END

*D_NET *445 0.0029227
*CONN
*I *1147:C1 I *D AOI222_X1
*I *1143:ZN O *D OAI211_X1
*CAP
1 *1147:C1 0.00046137
2 *1143:ZN 0.000839594
3 *445:14 0.00130096
4 *1147:C1 *519:20 4.40892e-05
5 *445:14 *518:8 2.94066e-06
6 *445:14 *519:12 2.23512e-07
7 *445:14 *519:20 3.6302e-06
8 *1143:C1 *445:14 1.77822e-05
9 *1147:A2 *1147:C1 6.85774e-07
10 *370:14 *445:14 0.000203824
11 *379:12 *445:14 0
12 *384:28 *1147:C1 9.62051e-07
13 *440:26 *1147:C1 4.38788e-05
14 *442:12 *1147:C1 2.75346e-06
*RES
1 *1143:ZN *445:14 49.4657 
2 *445:14 *1147:C1 36.4871 
*END

*D_NET *446 0.000384732
*CONN
*I *1146:A I *D OAI211_X1
*I *1144:ZN O *D NAND3_X1
*CAP
1 *1146:A 0.000133649
2 *1144:ZN 0.000133649
3 *1146:A *1146:B 7.19036e-06
4 *1146:A *448:8 8.60697e-05
5 *1146:A *851:83 7.19234e-06
6 *1146:C1 *1146:A 1.69812e-05
*RES
1 *1144:ZN *1146:A 37.1429 
*END

*D_NET *447 0.000771497
*CONN
*I *1146:B I *D OAI211_X1
*I *1145:ZN O *D AOI22_X1
*CAP
1 *1146:B 4.84644e-05
2 *1145:ZN 0.000325975
3 *447:10 0.000374439
4 *1146:B *498:53 0
5 *447:10 *1145:B1 1.11258e-05
6 *447:10 *501:39 4.30278e-06
7 *447:10 *680:10 0
8 *1146:A *1146:B 7.19036e-06
9 *1146:C1 *447:10 0
*RES
1 *1145:ZN *447:10 49.1786 
2 *447:10 *1146:B 9.75 
*END

*D_NET *448 0.00116175
*CONN
*I *1148:B2 I *D AOI21_X1
*I *1146:ZN O *D OAI211_X1
*CAP
1 *1148:B2 6.17306e-05
2 *1146:ZN 0
3 *448:8 0.000536464
4 *448:6 0.000474734
5 *448:8 *497:8 0
6 *448:8 *499:14 0
7 *1117:B2 *1148:B2 0
8 *1119:B1 *448:8 0
9 *1146:A *448:8 8.60697e-05
10 *1274:B2 *448:8 0
11 *13:12 *448:8 0
12 *375:54 *1148:B2 2.75346e-06
13 *393:8 *1148:B2 0
*RES
1 *1146:ZN *448:6 10 
2 *448:6 *448:8 52.5 
3 *448:8 *1148:B2 16.25 
*END

*D_NET *449 0.000320275
*CONN
*I *1150:B2 I *D AOI21_X1
*I *1147:ZN O *D AOI222_X1
*CAP
1 *1150:B2 0.000144726
2 *1147:ZN 0.000144726
3 *1150:B2 *462:19 2.72421e-05
4 *1147:A2 *1150:B2 3.58094e-06
5 *384:28 *1150:B2 0
6 *442:12 *1150:B2 0
*RES
1 *1147:ZN *1150:B2 35.8214 
*END

*D_NET *450 0.000220254
*CONN
*I *1150:B1 I *D AOI21_X1
*I *1148:ZN O *D AOI21_X1
*CAP
1 *1150:B1 9.33372e-05
2 *1148:ZN 9.33372e-05
3 *1150:B1 *1119:A 0
4 *1117:B2 *1150:B1 0
5 *375:54 *1150:B1 3.35796e-05
*RES
1 *1148:ZN *1150:B1 29.6071 
*END

*D_NET *451 0.000228172
*CONN
*I *1150:A I *D AOI21_X1
*I *1149:ZN O *D OAI21_X1
*CAP
1 *1150:A 9.9874e-05
2 *1149:ZN 9.9874e-05
3 *1150:A *462:19 0
4 *1373:D *1150:A 9.57948e-06
5 *393:8 *1150:A 0
6 *393:16 *1150:A 1.88444e-05
*RES
1 *1149:ZN *1150:A 21.3571 
*END

*D_NET *452 0.000395903
*CONN
*I *1153:A I *D OAI211_X1
*I *1151:ZN O *D NAND3_X1
*CAP
1 *1153:A 0.000142245
2 *1151:ZN 0.000142245
3 *1153:A *1153:B 3.90891e-05
4 *1153:A *454:8 4.17816e-05
5 *1153:A *828:392 8.88497e-06
6 *1153:C1 *1153:A 2.16579e-05
*RES
1 *1151:ZN *1153:A 38.25 
*END

*D_NET *453 0.00131137
*CONN
*I *1153:B I *D OAI211_X1
*I *1152:ZN O *D AOI22_X1
*CAP
1 *1153:B 9.88817e-05
2 *1152:ZN 0.000306305
3 *453:10 0.000405187
4 *1153:B *1334:A 4.32144e-07
5 *1153:B *1334:B 8.68394e-06
6 *1153:B *497:27 7.72537e-06
7 *1153:B *497:38 0.000105184
8 *1153:B *498:53 0
9 *1153:B *828:381 0
10 *1153:B *842:8 0
11 *453:10 *1042:A 8.22137e-05
12 *453:10 *1152:A1 8.33759e-07
13 *453:10 *1152:B2 2.40955e-06
14 *453:10 *1279:A2 2.59222e-06
15 *453:10 *476:285 4.32298e-05
16 *453:10 *497:27 3.42187e-06
17 *453:10 *502:31 0.000128993
18 *453:10 *825:55 6.7872e-05
19 *1153:A *1153:B 3.90891e-05
20 *1153:C1 *1153:B 4.73284e-06
21 *1334:C1 *453:10 0
22 *1435:D *1153:B 3.58099e-06
23 *349:8 *453:10 0
*RES
1 *1152:ZN *453:10 47.4643 
2 *453:10 *1153:B 23.75 
*END

*D_NET *454 0.00133839
*CONN
*I *1160:A2 I *D AOI22_X1
*I *1153:ZN O *D OAI211_X1
*CAP
1 *1160:A2 4.45031e-05
2 *1153:ZN 0
3 *454:8 0.000496394
4 *454:6 0.000451891
5 *1160:A2 *1163:B1 0
6 *1160:A2 *1163:B2 9.22998e-06
7 *1160:A2 *1337:A 1.16067e-05
8 *1160:A2 *827:148 6.9053e-06
9 *454:8 *950:A 6.84295e-05
10 *454:8 *1151:A2 0.000146395
11 *454:8 *827:148 6.12577e-05
12 *1153:A *454:8 4.17816e-05
13 *1277:B2 *454:8 0
*RES
1 *1153:ZN *454:6 10 
2 *454:6 *454:8 53.5179 
3 *454:8 *1160:A2 15.9107 
*END

*D_NET *455 0.0010225
*CONN
*I *1155:A I *D OAI221_X1
*I *1154:ZN O *D AOI22_X1
*CAP
1 *1155:A 5.21111e-05
2 *1154:ZN 0
3 *455:10 0.000396893
4 *455:6 0.000344782
5 *1155:A *1155:B1 2.75346e-06
6 *455:10 *1154:A1 1.39582e-06
7 *1063:B2 *455:10 8.1183e-06
8 *1063:C1 *455:10 0.000185381
9 *1155:B2 *1155:A 6.74733e-06
10 *1180:A1 *455:10 2.43171e-05
11 *1192:A1 *455:10 0
12 *1362:D *455:10 0
*RES
1 *1154:ZN *455:6 10 
2 *455:6 *455:10 47.3214 
3 *455:10 *1155:A 10.25 
*END

*D_NET *456 0.00256508
*CONN
*I *1155:ZN O *D OAI221_X1
*CAP
1 *1155:ZN 7.52917e-06
2 *456:22 7.8932e-05
3 *456:14 0.0011366
4 *456:10 0.0010652
5 *456:14 *473:45 0
6 *456:14 *851:127 0
7 *456:22 *1198:A1 0
8 *456:22 *460:28 0
9 *456:22 *474:290 3.22362e-05
10 *1087:B1 *456:22 0
11 *1098:A *456:22 0
12 *367:26 *456:14 0.000244582
*RES
1 *1155:ZN *456:10 15.6786 
2 *456:10 *456:14 47.42 
3 *456:14 *456:22 18.8214 
*END

*D_NET *457 0.00138143
*CONN
*I *1157:A I *D OAI221_X1
*I *1156:ZN O *D AOI22_X1
*CAP
1 *1157:A 5.90036e-06
2 *1156:ZN 0
3 *457:8 0.000424589
4 *457:6 0.000418689
5 *1157:A *458:12 3.23155e-06
6 *457:8 *1236:A1 0
7 *457:8 *458:12 4.7875e-06
8 *457:8 *474:44 0
9 *457:8 *823:148 0.00021675
10 *457:8 *823:154 4.16665e-05
11 *457:8 *823:187 6.32461e-06
12 *1157:B2 *457:8 0.000127961
13 *1231:B2 *457:8 0.000131535
14 *383:10 *457:8 0
*RES
1 *1156:ZN *457:6 10 
2 *457:6 *457:8 57.25 
3 *457:8 *1157:A 10.75 
*END

*D_NET *458 0.000925323
*CONN
*I *1160:B1 I *D AOI22_X1
*I *1157:ZN O *D OAI221_X1
*CAP
1 *1160:B1 7.3714e-06
2 *1157:ZN 0.000292504
3 *458:12 0.000299875
4 *458:12 *978:A 0
5 *458:12 *1163:B1 0
6 *458:12 *1337:A 3.57014e-05
7 *1157:A *458:12 3.23155e-06
8 *17:10 *458:12 8.88396e-05
9 *17:14 *458:12 6.97608e-05
10 *285:10 *458:12 0.000120158
11 *375:42 *1160:B1 3.09411e-06
12 *457:8 *458:12 4.7875e-06
*RES
1 *1157:ZN *458:12 46.5357 
2 *458:12 *1160:B1 10.75 
*END

*D_NET *459 0.00234578
*CONN
*I *1159:A I *D OAI221_X1
*I *1158:ZN O *D AOI22_X1
*CAP
1 *1159:A 0.000471474
2 *1158:ZN 0.000267979
3 *459:18 0.000739453
4 *1159:A *1319:A1 0.000559963
5 *1159:A *460:12 1.21774e-06
6 *1159:A *509:86 1.10597e-05
7 *459:18 *1319:A1 5.47143e-06
8 *459:18 *1323:B1 2.77917e-07
9 *459:18 *505:57 9.01193e-05
10 *459:18 *505:70 2.36926e-05
11 *459:18 *825:111 8.04661e-07
12 *459:18 *826:161 5.50682e-05
13 *459:18 *834:59 9.23721e-05
14 *1159:B2 *1159:A 1.21774e-06
15 *1314:B2 *1159:A 2.56109e-05
*RES
1 *1158:ZN *459:18 41.6014 
2 *459:18 *1159:A 43.1129 
*END

*D_NET *460 0.0021485
*CONN
*I *1159:ZN O *D OAI221_X1
*CAP
1 *1159:ZN 0.000102184
2 *460:28 2.34509e-05
3 *460:18 0.000557581
4 *460:16 0.000876126
5 *460:12 0.00044418
6 *460:12 *1388:CK 6.82202e-07
7 *460:16 *695:18 0
8 *460:16 *836:8 7.34533e-06
9 *460:18 *1136:A3 5.11191e-06
10 *460:18 *474:290 1.97967e-06
11 *460:18 *851:93 0
12 *460:28 *474:290 1.50871e-06
13 *1138:A *460:18 4.37715e-05
14 *1138:B *460:18 1.12734e-05
15 *1159:A *460:12 1.21774e-06
16 *1159:B2 *460:12 4.35489e-05
17 *1159:B2 *460:16 0
18 *1313:B2 *460:18 2.57883e-05
19 *1314:B2 *460:12 2.75346e-06
20 *1388:D *460:12 0
21 *244:10 *460:12 0
22 *440:10 *460:28 0
23 *456:22 *460:28 0
*RES
1 *1159:ZN *460:12 26.8571 
2 *460:12 *460:16 38.75 
3 *460:16 *460:18 60.3036 
4 *460:18 *460:28 12.5893 
*END

*D_NET *461 0.000166153
*CONN
*I *1163:B2 I *D AOI21_X1
*I *1160:ZN O *D AOI22_X1
*CAP
1 *1163:B2 5.94814e-05
2 *1160:ZN 5.94814e-05
3 *1163:B2 *1163:A 2.16072e-07
4 *1163:B2 *1163:B1 3.42187e-06
5 *1163:B2 *1337:A 1.2752e-06
6 *1163:B2 *827:148 0
7 *1160:A2 *1163:B2 9.22998e-06
8 *393:16 *1163:B2 3.30471e-05
*RES
1 *1160:ZN *1163:B2 26.8929 
*END

*D_NET *462 0.0021535
*CONN
*I *1163:B1 I *D AOI21_X1
*CAP
1 *1163:B1 9.159e-05
2 *462:19 0.000622761
3 *462:17 0.000842909
4 *462:3 0
5 *462:2 0.000311737
6 *462:19 *1336:B2 0
7 *462:19 *1337:A 3.26291e-06
8 *462:19 *1338:A 1.86514e-05
9 *462:19 *1338:B1 0
10 *1087:C2 *462:17 0
11 *1120:B1 *462:17 3.50761e-05
12 *1147:A2 *462:19 0
13 *1149:B1 *462:19 0
14 *1150:A *462:19 0
15 *1150:B2 *462:19 2.72421e-05
16 *1160:A2 *1163:B1 0
17 *1163:B2 *1163:B1 3.42187e-06
18 *1373:D *462:19 1.14895e-05
19 *17:10 *462:19 4.31693e-05
20 *375:36 *462:19 0
21 *375:42 *462:19 0
22 *375:54 *462:19 0
23 *386:16 *462:17 6.18555e-05
24 *393:8 *462:17 1.82809e-05
25 *393:8 *462:19 6.20514e-05
26 *458:12 *1163:B1 0
*RES
1 *462:2 *462:3 5 
2 *462:2 *462:17 44.9643 
3 *462:17 *462:19 59.1072 
4 *462:19 *1163:B1 24.0714 
*END

*D_NET *463 0.000282752
*CONN
*I *1163:A I *D AOI21_X1
*I *1162:ZN O *D OAI21_X1
*CAP
1 *1163:A 0.000104248
2 *1162:ZN 0.000104248
3 *1163:A *1372:CK 1.1025e-05
4 *1163:A *827:148 1.93278e-05
5 *1163:B2 *1163:A 2.16072e-07
6 *1372:D *1163:A 4.27253e-05
7 *393:16 *1163:A 9.62051e-07
*RES
1 *1162:ZN *1163:A 32.5357 
*END

*D_NET *465 0.00243743
*CONN
*I *1204:A1 I *D OR2_X2
*I *1194:A1 I *D OR2_X2
*I *1177:A1 I *D OR2_X2
*I *1167:A3 I *D OR4_X4
*I *1165:ZN O *D AOI211_X2
*CAP
1 *1204:A1 0
2 *1194:A1 0.000153903
3 *1177:A1 7.74441e-06
4 *1167:A3 9.86016e-05
5 *1165:ZN 6.1849e-05
6 *465:33 0.000394523
7 *465:23 0.000507411
8 *465:10 0.000434986
9 *1177:A1 *1360:CK 8.43215e-07
10 *1194:A1 *1013:A 4.29819e-05
11 *1194:A1 *1360:CK 3.02372e-05
12 *1194:A1 *474:290 4.28458e-05
13 *465:33 *1360:CK 0.000486244
14 *465:33 *1480:CK 2.86965e-05
15 *465:33 *474:275 0
16 *465:33 *483:18 4.38826e-05
17 *1072:B2 *1194:A1 1.67442e-05
18 *1118:C1 *1194:A1 4.33544e-05
19 *1166:C2 *1167:A3 0
20 *1360:D *1177:A1 2.52965e-06
21 *1480:D *465:33 3.65322e-06
22 *365:73 *465:33 0
23 *379:10 *1194:A1 3.63938e-05
24 *417:12 *1194:A1 0
*RES
1 *1165:ZN *465:10 15.8571 
2 *465:10 *1167:A3 19.75 
3 *465:10 *465:23 35.1072 
4 *465:23 *465:33 38.8214 
5 *465:33 *1177:A1 10.75 
6 *465:33 *1194:A1 31.3572 
7 *465:23 *1204:A1 5 
*END

*D_NET *467 0.00297066
*CONN
*I *1171:A2 I *D OAI22_X1
*I *1170:A2 I *D OAI22_X1
*I *1168:A2 I *D NAND2_X4
*I *1174:A2 I *D OAI22_X1
*I *1173:A2 I *D OAI22_X1
*I *1169:A2 I *D OAI22_X1
*I *1175:A2 I *D OAI22_X1
*I *1355:A2 I *D OAI22_X1
*I *1172:A2 I *D OAI22_X1
*I *1167:ZN O *D OR4_X4
*CAP
1 *1171:A2 0
2 *1170:A2 0
3 *1168:A2 0
4 *1174:A2 0
5 *1173:A2 0
6 *1169:A2 5.58397e-05
7 *1175:A2 0
8 *1355:A2 0
9 *1172:A2 1.77368e-05
10 *1167:ZN 0.000162343
11 *467:62 0.000287002
12 *467:52 0.000322127
13 *467:48 0.000228189
14 *467:37 0.000223378
15 *467:35 0.000179401
16 *467:29 0.000214575
17 *467:14 0.000243135
18 *467:8 0.000266414
19 *1169:A2 *1008:A 2.23871e-06
20 *1169:A2 *1169:B1 3.75815e-06
21 *1172:A2 *1171:B1 3.02351e-05
22 *1172:A2 *831:79 0
23 *467:8 *474:16 0
24 *467:14 *1014:A 3.47308e-05
25 *467:14 *1112:A1 8.33759e-07
26 *467:14 *1171:B1 0.000112374
27 *467:14 *474:16 0
28 *467:29 *1369:CK 2.43809e-05
29 *467:29 *468:74 1.18589e-06
30 *467:29 *831:79 6.15812e-06
31 *467:35 *1010:A 0
32 *467:35 *1369:CK 3.30047e-06
33 *467:35 *468:6 0
34 *467:35 *468:63 2.295e-05
35 *467:37 *1371:CK 7.66905e-06
36 *467:37 *468:8 9.3409e-06
37 *467:37 *468:63 5.01331e-06
38 *467:48 *1371:CK 2.26645e-05
39 *467:48 *468:10 1.98064e-05
40 *467:48 *829:106 1.36076e-05
41 *467:52 *1366:CK 8.43215e-07
42 *467:52 *468:16 1.95441e-05
43 *467:52 *829:37 1.75677e-05
44 *467:52 *829:106 1.59582e-06
45 *467:62 *1016:A 1.14945e-05
46 *467:62 *1366:CK 1.05232e-05
47 *467:62 *468:26 7.20546e-05
48 *467:62 *476:117 1.33704e-05
49 *467:62 *829:92 0
50 *1169:A1 *1169:A2 2.39679e-06
51 *1170:A1 *467:29 4.79358e-06
52 *1170:A1 *467:35 2.39679e-06
53 *1171:A1 *467:14 7.72792e-06
54 *1171:B2 *467:8 1.30994e-05
55 *1172:A1 *1172:A2 7.19036e-06
56 *1172:B2 *1172:A2 1.07633e-05
57 *1172:B2 *467:14 2.57909e-05
58 *1173:A1 *467:62 3.85541e-05
59 *1174:A1 *467:48 1.68643e-06
60 *1174:A1 *467:52 2.39679e-06
61 *1175:A1 *1169:A2 1.20772e-05
62 *1175:A1 *467:62 2.39679e-06
63 *1355:A1 *467:37 7.19036e-06
64 *1364:D *1169:A2 0
65 *1364:D *467:62 1.39155e-05
66 *1365:D *467:48 4.61743e-05
67 *1366:D *467:62 4.6837e-06
68 *1367:D *1172:A2 2.24822e-06
69 *1367:D *467:29 5.11574e-06
70 *1369:D *467:35 1.92063e-05
71 *1370:D *1169:A2 4.58634e-05
72 *1370:D *467:62 1.0682e-05
73 *1371:D *467:37 1.69265e-05
*RES
1 *1167:ZN *467:8 21.7143 
2 *467:8 *467:14 19.4643 
3 *467:14 *1172:A2 12.8571 
4 *467:14 *467:29 18.75 
5 *467:29 *467:35 11.4286 
6 *467:35 *467:37 10.25 
7 *467:37 *1355:A2 5 
8 *467:37 *467:48 17.6071 
9 *467:48 *467:52 11.1786 
10 *467:52 *467:62 38.6429 
11 *467:62 *1175:A2 5 
12 *467:62 *1169:A2 12.8571 
13 *467:52 *1173:A2 5 
14 *467:48 *1174:A2 5 
15 *467:35 *1168:A2 5 
16 *467:29 *1170:A2 5 
17 *467:8 *1171:A2 5 
*END

*D_NET *468 0.0027291
*CONN
*I *1172:B1 I *D OAI22_X1
*I *1171:B1 I *D OAI22_X1
*I *1170:B1 I *D OAI22_X1
*I *1355:B1 I *D OAI22_X1
*I *1174:B1 I *D OAI22_X1
*I *1173:B1 I *D OAI22_X1
*I *1175:B1 I *D OAI22_X1
*I *1169:B1 I *D OAI22_X1
*I *1168:ZN O *D NAND2_X4
*CAP
1 *1172:B1 1.42068e-05
2 *1171:B1 0.000133803
3 *1170:B1 0
4 *1355:B1 0
5 *1174:B1 0
6 *1173:B1 0
7 *1175:B1 0
8 *1169:B1 6.75868e-05
9 *1168:ZN 1.50803e-05
10 *468:74 0.00028759
11 *468:63 0.000251525
12 *468:26 0.000275859
13 *468:16 0.000310294
14 *468:10 0.000247809
15 *468:8 0.000217852
16 *468:6 0.00019909
17 *1171:B1 *1014:A 6.65423e-06
18 *1171:B1 *831:79 0
19 *468:26 *476:117 6.92191e-05
20 *1169:A1 *1169:B1 8.43215e-07
21 *1169:A2 *1169:B1 3.75815e-06
22 *1170:A1 *468:63 8.43215e-07
23 *1170:A1 *468:74 2.52965e-06
24 *1171:A1 *1171:B1 3.09411e-06
25 *1171:B2 *1171:B1 2.75346e-06
26 *1172:A1 *1171:B1 1.04526e-05
27 *1172:A1 *1172:B1 1.68643e-06
28 *1172:A2 *1171:B1 3.02351e-05
29 *1172:B2 *1171:B1 1.90574e-06
30 *1173:A1 *468:16 8.43215e-07
31 *1173:A1 *468:26 1.87369e-06
32 *1173:B2 *468:26 0.000118767
33 *1174:A1 *468:10 2.52965e-06
34 *1174:A1 *468:16 8.43215e-07
35 *1175:A1 *1169:B1 1.53342e-05
36 *1175:A1 *468:26 8.43215e-07
37 *1355:A1 *468:8 1.68643e-06
38 *1355:A1 *468:10 8.43215e-07
39 *1364:D *468:26 2.20619e-05
40 *1365:D *468:10 1.00571e-05
41 *1366:D *468:26 4.44177e-05
42 *1367:D *1172:B1 1.26998e-05
43 *1367:D *468:74 3.35796e-05
44 *1370:D *1169:B1 1.18232e-06
45 *1371:D *468:8 4.4596e-05
46 *411:16 *1172:B1 0
47 *411:16 *468:8 0
48 *411:16 *468:10 0
49 *411:16 *468:63 0
50 *411:16 *468:74 0
51 *467:14 *1171:B1 0.000112374
52 *467:29 *468:74 1.18589e-06
53 *467:35 *468:6 0
54 *467:35 *468:63 2.295e-05
55 *467:37 *468:8 9.3409e-06
56 *467:37 *468:63 5.01331e-06
57 *467:48 *468:10 1.98064e-05
58 *467:52 *468:16 1.95441e-05
59 *467:62 *468:26 7.20546e-05
*RES
1 *1168:ZN *468:6 6.60714 
2 *468:6 *468:8 8.75 
3 *468:8 *468:10 15.75 
4 *468:10 *468:16 11.4286 
5 *468:16 *468:26 38.6429 
6 *468:26 *1169:B1 12.6071 
7 *468:26 *1175:B1 5 
8 *468:16 *1173:B1 5 
9 *468:10 *1174:B1 5 
10 *468:8 *1355:B1 5 
11 *468:6 *468:63 12.9286 
12 *468:63 *1170:B1 5 
13 *468:63 *468:74 15.1071 
14 *468:74 *1171:B1 31.3214 
15 *468:74 *1172:B1 6.75 
*END

*D_NET *470 0.00283502
*CONN
*I *1184:B2 I *D OAI22_X1
*I *1186:B2 I *D OAI22_X1
*I *1182:B2 I *D OAI22_X1
*I *1178:A2 I *D NAND2_X1
*I *1354:B2 I *D OAI22_X1
*I *1190:B2 I *D OAI22_X1
*I *1188:B2 I *D OAI22_X1
*I *1192:B2 I *D OAI22_X1
*I *1180:B2 I *D OAI22_X1
*I *1177:ZN O *D OR2_X2
*CAP
1 *1184:B2 0
2 *1186:B2 0
3 *1182:B2 0
4 *1178:A2 0
5 *1354:B2 0
6 *1190:B2 0
7 *1188:B2 0
8 *1192:B2 3.67251e-05
9 *1180:B2 8.92539e-05
10 *1177:ZN 7.95716e-05
11 *470:46 0.000300591
12 *470:34 0.000264652
13 *470:28 0.000205884
14 *470:22 0.000239488
15 *470:20 0.000185621
16 *470:16 0.000198697
17 *470:12 0.000302229
18 *470:8 0.00024508
19 *1180:B2 *1180:A2 1.60038e-06
20 *1180:B2 *830:41 1.26074e-05
21 *1192:B2 *1192:A2 3.02372e-05
22 *1192:B2 *830:63 0
23 *470:8 *1184:B1 5.96901e-05
24 *470:8 *474:290 1.57137e-05
25 *470:8 *823:14 0
26 *470:12 *1184:A2 0
27 *470:12 *471:15 0
28 *470:16 *1361:CK 1.3604e-05
29 *470:16 *471:15 0
30 *470:20 *471:8 9.26487e-06
31 *470:22 *1363:CK 5.52959e-06
32 *470:22 *471:8 5.01331e-06
33 *470:22 *471:33 2.2036e-05
34 *470:28 *471:33 6.38328e-07
35 *470:28 *471:42 2.74709e-05
36 *470:28 *830:27 0.0001424
37 *470:34 *1188:B1 7.72792e-06
38 *470:34 *471:42 6.38328e-07
39 *470:34 *471:51 1.27711e-05
40 *470:34 *830:27 5.1472e-05
41 *470:34 *830:37 6.11168e-05
42 *470:46 *830:37 1.88811e-05
43 *470:46 *830:39 0
44 *470:46 *830:41 0
45 *470:46 *830:63 0
46 *1180:A1 *1180:B2 1.43238e-06
47 *1358:D *470:46 1.52374e-05
48 *1359:D *470:16 1.78665e-05
49 *1360:D *470:8 3.45089e-05
50 *1361:D *470:16 4.04875e-05
51 *1362:D *1180:B2 2.66927e-05
52 *1363:D *470:22 1.93619e-05
53 *1363:D *470:28 6.77448e-06
54 *320:8 *470:8 0
55 *369:10 *1192:B2 1.50149e-05
56 *369:10 *470:46 1.14339e-05
57 *430:10 *470:46 0
*RES
1 *1177:ZN *470:8 16.0357 
2 *470:8 *470:12 16.6786 
3 *470:12 *470:16 15.6786 
4 *470:16 *470:20 6.67857 
5 *470:20 *470:22 14.75 
6 *470:22 *470:28 16.9286 
7 *470:28 *470:34 12.7857 
8 *470:34 *470:46 32.9643 
9 *470:46 *1180:B2 20.25 
10 *470:46 *1192:B2 14.3214 
11 *470:34 *1188:B2 5 
12 *470:28 *1190:B2 5 
13 *470:22 *1354:B2 5 
14 *470:20 *1178:A2 5 
15 *470:16 *1182:B2 5 
16 *470:12 *1186:B2 5 
17 *470:8 *1184:B2 5 
*END

*D_NET *471 0.00252712
*CONN
*I *1188:A2 I *D OAI22_X1
*I *1192:A2 I *D OAI22_X1
*I *1180:A2 I *D OAI22_X1
*I *1190:A2 I *D OAI22_X1
*I *1354:A2 I *D OAI22_X1
*I *1184:A2 I *D OAI22_X1
*I *1186:A2 I *D OAI22_X1
*I *1182:A2 I *D OAI22_X1
*I *1178:ZN O *D NAND2_X1
*CAP
1 *1188:A2 0
2 *1192:A2 2.99497e-05
3 *1180:A2 7.30781e-05
4 *1190:A2 0
5 *1354:A2 0
6 *1184:A2 0.000155797
7 *1186:A2 8.71307e-06
8 *1182:A2 0
9 *1178:ZN 8.71307e-06
10 *471:53 0.000222695
11 *471:51 0.000229814
12 *471:42 0.000264728
13 *471:33 0.000280228
14 *471:15 0.000295161
15 *471:8 0.000196695
16 *471:6 0.000200404
17 *1180:A2 *830:41 5.4899e-05
18 *1184:A2 *1015:A 8.43215e-07
19 *1184:A2 *823:25 0
20 *1192:A2 *1063:B1 9.62051e-07
21 *471:8 *823:35 0
22 *471:15 *1011:A 4.79658e-06
23 *471:15 *1015:A 1.51442e-05
24 *471:15 *1361:CK 2.6197e-05
25 *471:15 *823:29 0
26 *471:33 *1050:A 7.66204e-06
27 *471:33 *1363:CK 5.52959e-06
28 *471:33 *823:35 0
29 *471:42 *1050:A 8.43215e-07
30 *471:42 *823:46 0
31 *471:51 *1019:A 3.83757e-05
32 *471:51 *1188:B1 6.82202e-07
33 *471:51 *823:52 0
34 *471:53 *1017:A 0
35 *471:53 *1063:B1 0
36 *471:53 *1188:B1 7.16188e-07
37 *471:53 *823:52 0
38 *471:53 *823:56 0
39 *471:53 *830:37 3.90865e-05
40 *471:53 *830:39 7.14198e-05
41 *471:53 *830:41 4.11292e-05
42 *1143:C1 *471:42 0
43 *1180:A1 *1180:A2 1.87392e-05
44 *1180:B2 *1180:A2 1.60038e-06
45 *1184:A1 *1184:A2 2.75346e-06
46 *1190:A1 *471:42 0
47 *1192:A1 *1180:A2 0
48 *1192:A1 *1192:A2 7.72792e-06
49 *1192:B2 *1192:A2 3.02372e-05
50 *1356:D *1180:A2 1.46998e-05
51 *1358:D *471:53 2.25089e-06
52 *1359:D *471:15 5.69557e-06
53 *1361:D *471:15 2.52965e-06
54 *1362:D *1180:A2 7.36912e-06
55 *369:10 *1192:A2 8.14262e-05
56 *470:12 *1184:A2 0
57 *470:12 *471:15 0
58 *470:16 *471:15 0
59 *470:20 *471:8 9.26487e-06
60 *470:22 *471:8 5.01331e-06
61 *470:22 *471:33 2.2036e-05
62 *470:28 *471:33 6.38328e-07
63 *470:28 *471:42 2.74709e-05
64 *470:34 *471:42 6.38328e-07
65 *470:34 *471:51 1.27711e-05
*RES
1 *1178:ZN *471:6 5.92857 
2 *471:6 *471:8 7.25 
3 *471:8 *1182:A2 5 
4 *471:8 *471:15 14.75 
5 *471:15 *1186:A2 5.92857 
6 *471:15 *1184:A2 20.75 
7 *471:6 *471:33 14.1786 
8 *471:33 *1354:A2 5 
9 *471:33 *471:42 16.6786 
10 *471:42 *1190:A2 5 
11 *471:42 *471:51 12.5357 
12 *471:51 *471:53 15.25 
13 *471:53 *1180:A2 14.75 
14 *471:53 *1192:A2 20.0714 
15 *471:51 *1188:A2 5 
*END

*D_NET *473 0.0206645
*CONN
*I *1226:A1 I *D OAI22_X1
*I *1235:A1 I *D OAI22_X1
*I *1217:A1 I *D OAI22_X1
*I *1244:A1 I *D OAI22_X1
*I *1207:A1 I *D OAI22_X1
*I *1197:A1 I *D OAI22_X1
*I *1263:A1 I *D OAI22_X1
*I *1309:A1 I *D OAI22_X1
*I *1300:A1 I *D OAI22_X1
*I *1291:A1 I *D OAI22_X1
*I *1318:A1 I *D OAI22_X1
*I *1254:A1 I *D OAI22_X1
*I *1281:A1 I *D OAI22_X1
*I *1272:A1 I *D OAI22_X1
*I *1182:B1 I *D OAI22_X1
*I *1181:ZN O *D NAND2_X2
*CAP
1 *1226:A1 0.000182507
2 *1235:A1 0
3 *1217:A1 0
4 *1244:A1 6.67372e-05
5 *1207:A1 6.1623e-06
6 *1197:A1 4.82854e-06
7 *1263:A1 0
8 *1309:A1 0
9 *1300:A1 7.0336e-06
10 *1291:A1 0.000183396
11 *1318:A1 4.60465e-06
12 *1254:A1 2.57021e-05
13 *1281:A1 5.36958e-06
14 *1272:A1 5.80492e-06
15 *1182:B1 0
16 *1181:ZN 0.000254311
17 *473:235 0.0002714
18 *473:213 0.000478766
19 *473:207 0.000775614
20 *473:203 0.000543674
21 *473:195 0.00121127
22 *473:178 0.0011298
23 *473:124 0.000883433
24 *473:116 0.000848883
25 *473:112 0.000157843
26 *473:110 0.00122419
27 *473:106 0.0012228
28 *473:89 0.000142847
29 *473:74 0.00012896
30 *473:70 0.000300875
31 *473:68 0.00031048
32 *473:64 0.000353162
33 *473:49 0.000543222
34 *473:45 0.00190305
35 *473:43 0.0016927
36 *473:41 0.000295471
37 *473:28 0.000629555
38 *473:14 0.000666883
39 *473:10 0.000400926
40 *1197:A1 *1197:B1 3.09143e-06
41 *1197:A1 *480:23 7.72537e-06
42 *1207:A1 *1112:A1 5.63653e-06
43 *1226:A1 *968:A 1.32323e-05
44 *1226:A1 *983:A 6.02248e-05
45 *1226:A1 *1226:B1 8.43215e-07
46 *1226:A1 *491:26 0
47 *1244:A1 *1244:B1 1.58653e-05
48 *1244:A1 *487:44 9.74193e-06
49 *1244:A1 *493:60 0
50 *1254:A1 *1254:B1 2.75346e-06
51 *1254:A1 *826:85 0
52 *1272:A1 *1272:A2 7.19036e-06
53 *1272:A1 *1272:B1 8.43215e-07
54 *1272:A1 *499:82 3.23723e-07
55 *1281:A1 *1281:A2 7.19036e-06
56 *1281:A1 *1281:B1 3.09411e-06
57 *1291:A1 *913:A 0.000106082
58 *1291:A1 *1079:A1 9.20438e-05
59 *1291:A1 *1079:B2 3.81944e-05
60 *1291:A1 *1094:B1 0
61 *1291:A1 *1293:B1 6.74733e-06
62 *1291:A1 *505:83 8.43215e-07
63 *1300:A1 *516:12 0
64 *1300:A1 *836:46 2.52965e-06
65 *1318:A1 *1094:B1 0
66 *473:10 *1010:A 3.63228e-05
67 *473:10 *1082:A1 2.16603e-05
68 *473:10 *1369:CK 1.72191e-05
69 *473:14 *1082:A1 5.9756e-05
70 *473:14 *484:12 8.39712e-06
71 *473:28 *1082:A1 9.91997e-06
72 *473:41 *1081:A2 9.52084e-05
73 *473:41 *481:69 0
74 *473:41 *851:127 0
75 *473:45 *851:127 1.49504e-05
76 *473:49 *1272:A2 2.94134e-05
77 *473:49 *500:31 8.56923e-06
78 *473:64 *1272:A2 1.2453e-05
79 *473:64 *497:51 2.39679e-06
80 *473:64 *497:58 4.16642e-05
81 *473:64 *498:22 1.03315e-06
82 *473:68 *497:51 3.1833e-05
83 *473:68 *498:22 8.43215e-07
84 *473:68 *498:28 1.03759e-05
85 *473:70 *947:A 3.18122e-06
86 *473:70 *1257:A1 2.08098e-06
87 *473:70 *1266:A1 6.63032e-05
88 *473:70 *1281:A2 7.94852e-06
89 *473:70 *1284:A2 7.30625e-05
90 *473:70 *474:150 0.000146647
91 *473:70 *476:302 9.26282e-06
92 *473:70 *501:99 2.39721e-05
93 *473:74 *941:A 2.55787e-06
94 *473:74 *1281:A2 7.19036e-06
95 *473:74 *1281:B1 2.90685e-06
96 *473:89 *941:A 6.48216e-07
97 *473:89 *1085:A1 7.72537e-06
98 *473:89 *1281:A2 1.66988e-05
99 *473:89 *1441:CK 9.77662e-06
100 *473:89 *684:10 0
101 *473:89 *826:85 0
102 *473:110 *825:76 7.45418e-05
103 *473:110 *826:117 2.41667e-07
104 *473:110 *826:123 2.53031e-05
105 *473:116 *509:35 0
106 *473:116 *836:42 0
107 *473:116 *836:66 0
108 *473:116 *836:81 0
109 *473:178 *828:141 1.44988e-05
110 *473:195 *1350:A2 0.000147192
111 *473:195 *474:34 0
112 *473:195 *828:141 1.26053e-05
113 *473:203 *474:38 0.000367409
114 *473:207 *983:A 0
115 *473:207 *491:26 4.10606e-05
116 *473:207 *837:10 0
117 *473:207 *837:12 0
118 *473:207 *837:16 0
119 *473:213 *1351:A2 0
120 *473:213 *487:121 1.88489e-05
121 *473:213 *493:60 0
122 *473:235 *1349:A2 0
123 *473:235 *1350:A2 3.09411e-06
124 *1029:A *473:10 0
125 *1080:C1 *473:116 2.28607e-05
126 *1083:A *473:41 6.16682e-05
127 *1083:B *473:28 0.000103254
128 *1083:B *473:41 0
129 *1083:C1 *473:41 9.40137e-05
130 *1086:C1 *473:64 0
131 *1117:A2 *473:45 0
132 *1131:B *473:70 0.000529388
133 *1182:A1 *473:41 8.11762e-05
134 *1207:B2 *1207:A1 1.72023e-05
135 *1217:B2 *1244:A1 3.83783e-05
136 *1217:B2 *473:213 0
137 *1226:B2 *1226:A1 0
138 *1226:B2 *473:207 3.91587e-05
139 *1235:B2 *1226:A1 3.57502e-06
140 *1254:B2 *1254:A1 3.50308e-06
141 *1254:B2 *473:89 9.54782e-06
142 *1272:B2 *473:49 4.2406e-05
143 *1272:B2 *473:64 6.70962e-05
144 *1281:B2 *473:89 6.76399e-05
145 *1291:B2 *1291:A1 7.87811e-06
146 *1300:B2 *473:116 0.000106301
147 *1300:B2 *473:124 1.07931e-05
148 *1318:B2 *1291:A1 1.79835e-05
149 *1318:B2 *1318:A1 2.38218e-06
150 *1361:D *473:28 1.52538e-05
151 *1361:D *473:41 1.11006e-05
152 *1369:D *473:10 0
153 *1393:D *473:112 4.35096e-05
154 *1393:D *473:116 5.11191e-06
155 *1409:D *1291:A1 4.45934e-05
156 *1417:D *473:74 1.26019e-05
157 *1425:D *1272:A1 2.39679e-06
158 *1433:D *473:64 3.90865e-05
159 *1441:D *1254:A1 1.25513e-05
160 *1441:D *473:89 3.68681e-05
161 *1444:D *473:213 0
162 *1457:D *1226:A1 3.39906e-05
163 *1465:D *1226:A1 4.79202e-06
164 *1465:D *473:207 2.37916e-06
165 *1473:D *1244:A1 7.0096e-06
166 *1487:D *473:41 0
167 *1489:D *473:41 6.29716e-06
168 *7:5 *473:10 0
169 *13:25 *473:45 0.00021738
170 *219:8 *473:112 1.03228e-05
171 *219:8 *473:116 8.58925e-06
172 *262:10 *473:64 0
173 *375:90 *473:49 0
174 *388:14 *473:28 0
175 *391:10 *473:70 7.27362e-05
176 *391:10 *473:89 0
177 *392:12 *473:49 0
178 *392:12 *473:64 0
179 *411:30 *473:28 1.85011e-05
180 *456:14 *473:45 0
*RES
1 *1181:ZN *473:10 39.8214 
2 *473:10 *473:14 24.2857 
3 *473:14 *473:28 47.3243 
4 *473:28 *1182:B1 10 
5 *473:28 *473:41 36.7857 
6 *473:41 *473:43 5 
7 *473:43 *473:45 64.68 
8 *473:45 *473:49 28.0714 
9 *473:49 *1272:A1 10.75 
10 *473:49 *473:64 42.75 
11 *473:64 *473:68 8.25 
12 *473:68 *473:70 51.8214 
13 *473:70 *473:74 7.25 
14 *473:74 *1281:A1 5.75 
15 *473:74 *473:89 23.75 
16 *473:89 *1254:A1 8.42857 
17 *473:89 *473:106 10.6429 
18 *473:106 *473:110 49.94 
19 *473:110 *473:112 2.57143 
20 *473:112 *473:116 17.2857 
21 *473:116 *473:124 35.8429 
22 *473:124 *1318:A1 10.5357 
23 *473:124 *1291:A1 34.0357 
24 *473:116 *1300:A1 10.75 
25 *473:112 *1309:A1 10 
26 *473:64 *1263:A1 5 
27 *473:41 *1197:A1 10.75 
28 *473:14 *473:178 6.51 
29 *473:178 *1207:A1 15.9643 
30 *473:178 *473:195 46.2371 
31 *473:195 *473:203 19.7929 
32 *473:203 *473:207 45.5 
33 *473:207 *473:213 47.5714 
34 *473:213 *1244:A1 18.7143 
35 *473:213 *1217:A1 10 
36 *473:195 *473:235 13.75 
37 *473:235 *1235:A1 5 
38 *473:235 *1226:A1 35.0714 
*END

*D_NET *474 0.0198615
*CONN
*I *1198:A1 I *D OAI22_X1
*I *1184:B1 I *D OAI22_X1
*I *1208:A1 I *D OAI22_X1
*I *1236:A1 I *D OAI22_X1
*I *1227:A1 I *D OAI22_X1
*I *1255:A1 I *D OAI22_X1
*I *1282:A1 I *D OAI22_X1
*I *1301:A1 I *D OAI22_X1
*I *1310:A1 I *D OAI22_X1
*I *1292:A1 I *D OAI22_X1
*I *1319:A1 I *D OAI22_X1
*I *1264:A1 I *D OAI22_X1
*I *1273:A1 I *D OAI22_X1
*I *1218:A1 I *D OAI22_X1
*I *1245:A1 I *D OAI22_X1
*I *1183:ZN O *D NAND2_X2
*CAP
1 *1198:A1 0.000167136
2 *1184:B1 3.7322e-05
3 *1208:A1 0
4 *1236:A1 1.61239e-05
5 *1227:A1 0
6 *1255:A1 5.28503e-05
7 *1282:A1 0
8 *1301:A1 4.39526e-05
9 *1310:A1 0
10 *1292:A1 3.48257e-06
11 *1319:A1 0.000251047
12 *1264:A1 1.00409e-05
13 *1273:A1 1.13675e-05
14 *1218:A1 0.000121146
15 *1245:A1 4.73785e-05
16 *1183:ZN 0.00021346
17 *474:290 0.000463422
18 *474:275 0.000571682
19 *474:258 0.000321227
20 *474:222 9.96557e-05
21 *474:172 0.000254529
22 *474:170 0.000504578
23 *474:154 0.000540652
24 *474:152 0.00109696
25 *474:150 0.00119538
26 *474:142 0.000343469
27 *474:140 0.000304431
28 *474:119 0.000451333
29 *474:106 0.000335633
30 *474:98 0.000926815
31 *474:96 0.00086417
32 *474:94 0.000315867
33 *474:60 0.000494745
34 *474:54 0.00117319
35 *474:44 0.000886108
36 *474:38 0.000987607
37 *474:34 0.00107877
38 *474:16 0.000733129
39 *474:10 0.000407691
40 *1198:A1 *1198:B1 8.43215e-07
41 *1198:A1 *480:14 2.39679e-06
42 *1198:A1 *731:12 4.38826e-05
43 *1218:A1 *971:A 0
44 *1218:A1 *1218:B1 6.0887e-06
45 *1218:A1 *476:47 0.00019338
46 *1218:A1 *839:57 0
47 *1245:A1 *984:A 4.87937e-06
48 *1245:A1 *1245:B1 1.21774e-06
49 *1245:A1 *476:47 6.06867e-06
50 *1245:A1 *493:12 0
51 *1255:A1 *1255:B1 8.43215e-07
52 *1255:A1 *1282:A2 2.39679e-06
53 *1255:A1 *1282:B1 8.43215e-07
54 *1255:A1 *825:28 1.43344e-05
55 *1264:A1 *957:A 3.19164e-07
56 *1264:A1 *1264:A2 2.75346e-06
57 *1273:A1 *942:A 0
58 *1273:A1 *843:126 3.09411e-06
59 *1301:A1 *929:A 0
60 *1301:A1 *836:122 2.52965e-06
61 *1319:A1 *1094:A2 0
62 *1319:A1 *505:57 5.05238e-06
63 *474:10 *1014:A 0
64 *474:16 *1012:A 4.79658e-06
65 *474:16 *1097:A1 1.6278e-06
66 *474:44 *1227:B1 1.21774e-06
67 *474:44 *1468:CK 0
68 *474:44 *827:12 2.07643e-05
69 *474:54 *839:12 9.85795e-06
70 *474:60 *980:A 1.09827e-05
71 *474:60 *984:A 6.44194e-06
72 *474:60 *1092:A1 1.01343e-05
73 *474:60 *493:12 0
74 *474:94 *1504:CK 4.26902e-05
75 *474:94 *839:126 0.000366767
76 *474:98 *1502:A3 0
77 *474:98 *827:119 0.000144816
78 *474:106 *1426:CK 0
79 *474:119 *942:A 4.98574e-05
80 *474:119 *1099:A2 4.11266e-05
81 *474:140 *953:A 0
82 *474:140 *957:A 1.5496e-05
83 *474:140 *826:36 6.92191e-05
84 *474:140 *844:71 0
85 *474:142 *496:22 3.1068e-05
86 *474:150 *1266:A1 2.39721e-05
87 *474:150 *476:302 8.88497e-06
88 *474:150 *496:22 4.87096e-06
89 *474:150 *502:72 0.000180583
90 *474:152 *914:A 2.02694e-05
91 *474:152 *929:A 1.77697e-05
92 *474:152 *476:289 0
93 *474:152 *501:12 0
94 *474:152 *501:39 0
95 *474:152 *827:244 1.88444e-05
96 *474:154 *836:122 6.38328e-07
97 *474:170 *1310:B1 6.84974e-05
98 *474:170 *509:18 2.89039e-05
99 *474:170 *509:35 1.72426e-05
100 *474:170 *836:122 0
101 *474:222 *502:72 2.00032e-05
102 *474:222 *502:85 1.14365e-05
103 *474:258 *1097:A1 9.29011e-06
104 *474:258 *1208:B1 2.52965e-06
105 *474:258 *483:20 7.19036e-06
106 *474:275 *999:A 2.30629e-05
107 *474:275 *483:18 4.22192e-05
108 *474:275 *483:20 2.39679e-06
109 *474:275 *739:12 1.045e-05
110 *474:275 *832:47 7.16188e-07
111 *1030:A *474:10 4.63731e-05
112 *1071:B *474:119 9.9131e-06
113 *1072:B2 *474:290 4.48812e-06
114 *1095:B2 *1301:A1 1.39839e-06
115 *1101:A *474:119 0
116 *1101:C1 *474:119 4.24188e-05
117 *1159:A *1319:A1 0.000559963
118 *1171:A1 *474:10 8.68231e-05
119 *1171:B2 *474:16 1.46266e-05
120 *1172:A1 *474:10 0
121 *1172:B2 *474:10 0
122 *1184:A1 *1184:B1 2.05797e-05
123 *1194:A1 *474:290 4.28458e-05
124 *1198:B2 *1198:A1 5.6046e-05
125 *1208:B2 *474:258 4.18123e-05
126 *1218:B2 *1218:A1 0.000113162
127 *1236:B2 *1236:A1 2.26306e-06
128 *1243:B2 *474:60 1.75374e-05
129 *1245:B2 *1218:A1 0
130 *1245:B2 *1245:A1 5.74094e-06
131 *1273:B2 *474:106 9.77674e-06
132 *1273:B2 *474:119 2.10895e-05
133 *1282:B2 *1255:A1 2.87703e-06
134 *1282:B2 *474:142 3.6114e-06
135 *1368:D *474:10 2.25647e-05
136 *1368:D *474:16 4.4061e-05
137 *1392:D *474:152 1.25394e-05
138 *1392:D *474:154 1.39864e-05
139 *1416:D *1255:A1 9.26304e-06
140 *1416:D *474:142 7.98822e-06
141 *1424:D *1273:A1 7.72792e-06
142 *1424:D *474:106 3.90891e-05
143 *1426:D *474:98 5.86754e-06
144 *1426:D *474:106 3.11307e-05
145 *1432:D *1264:A1 1.25189e-05
146 *1440:D *1255:A1 3.88456e-06
147 *1456:D *1236:A1 1.6516e-06
148 *1456:D *474:44 9.97017e-06
149 *1472:D *1218:A1 4.31937e-06
150 *1480:D *474:275 5.06354e-05
151 *1494:B2 *474:98 0
152 *14:12 *474:98 3.01743e-06
153 *16:8 *474:98 1.46241e-05
154 *16:12 *474:98 2.30381e-05
155 *23:20 *474:98 0
156 *221:12 *1301:A1 0
157 *221:12 *474:154 4.79658e-06
158 *236:10 *1301:A1 6.76399e-05
159 *264:8 *474:119 4.18985e-05
160 *264:8 *474:140 6.39357e-05
161 *320:8 *1184:B1 0
162 *320:8 *474:290 0
163 *365:12 *474:60 0
164 *365:12 *474:94 0
165 *365:16 *474:60 2.70295e-05
166 *365:71 *474:34 1.35532e-05
167 *367:26 *474:290 9.65526e-07
168 *377:18 *474:140 8.2746e-05
169 *378:10 *474:119 3.93852e-05
170 *379:10 *474:290 0
171 *384:14 *474:38 0
172 *402:12 *474:275 0.000439298
173 *402:12 *474:290 3.34047e-05
174 *405:10 *474:140 1.21873e-05
175 *411:12 *474:10 0
176 *417:12 *474:290 1.88349e-05
177 *441:20 *474:94 0
178 *441:20 *474:98 0
179 *456:22 *1198:A1 0
180 *456:22 *474:290 3.22362e-05
181 *457:8 *1236:A1 0
182 *457:8 *474:44 0
183 *459:18 *1319:A1 5.47143e-06
184 *460:18 *474:290 1.97967e-06
185 *460:28 *474:290 1.50871e-06
186 *465:33 *474:275 0
187 *467:8 *474:16 0
188 *467:14 *474:16 0
189 *470:8 *1184:B1 5.96901e-05
190 *470:8 *474:290 1.57137e-05
191 *473:70 *474:150 0.000146647
192 *473:195 *474:34 0
193 *473:203 *474:38 0.000367409
*RES
1 *1183:ZN *474:10 43.0714 
2 *474:10 *474:16 26.5357 
3 *474:16 *474:34 33.27 
4 *474:34 *474:38 29.93 
5 *474:38 *474:44 41.8572 
6 *474:44 *474:54 35.0871 
7 *474:54 *474:60 37.2143 
8 *474:60 *1245:A1 15.5357 
9 *474:60 *1218:A1 31.1072 
10 *474:54 *474:94 49.75 
11 *474:94 *474:96 0.75 
12 *474:96 *474:98 94.5715 
13 *474:98 *474:106 18.8571 
14 *474:106 *1273:A1 11.5 
15 *474:106 *474:119 32.8214 
16 *474:119 *1264:A1 11.25 
17 *474:119 *474:140 41.6429 
18 *474:140 *474:142 13.25 
19 *474:142 *474:150 35.9643 
20 *474:150 *474:152 102.75 
21 *474:152 *474:154 4.25 
22 *474:154 *474:170 49.4686 
23 *474:170 *474:172 3 
24 *474:172 *1319:A1 28.0957 
25 *474:172 *1292:A1 15.2857 
26 *474:154 *1310:A1 5 
27 *474:152 *1301:A1 20.0714 
28 *474:142 *474:222 15.25 
29 *474:222 *1282:A1 5 
30 *474:222 *1255:A1 11.9286 
31 *474:44 *1227:A1 5 
32 *474:38 *1236:A1 11.7143 
33 *474:16 *474:258 14.9643 
34 *474:258 *1208:A1 5 
35 *474:258 *474:275 45 
36 *474:275 *1184:B1 10.75 
37 *474:275 *474:290 45.9286 
38 *474:290 *1198:A1 24.1072 
*END

*D_NET *476 0.027965
*CONN
*I *1257:A1 I *D OAI22_X1
*I *1284:A1 I *D OAI22_X1
*I *1266:A1 I *D OAI22_X1
*I *1303:A1 I *D OAI22_X1
*I *1312:A1 I *D OAI22_X1
*I *1275:A1 I *D OAI22_X1
*I *1294:A1 I *D OAI22_X1
*I *1321:A1 I *D OAI22_X1
*I *1200:A1 I *D OAI22_X1
*I *1188:B1 I *D OAI22_X1
*I *1210:A1 I *D OAI22_X1
*I *1220:A1 I *D OAI22_X1
*I *1229:A1 I *D OAI22_X1
*I *1238:A1 I *D OAI22_X1
*I *1247:A1 I *D OAI22_X1
*I *1187:ZN O *D NAND2_X2
*CAP
1 *1257:A1 0.000104978
2 *1284:A1 5.17015e-06
3 *1266:A1 0.000184655
4 *1303:A1 4.01375e-05
5 *1312:A1 0.000102825
6 *1275:A1 1.9988e-05
7 *1294:A1 0
8 *1321:A1 0.000160395
9 *1200:A1 0
10 *1188:B1 1.05007e-05
11 *1210:A1 0.000111189
12 *1220:A1 0
13 *1229:A1 0
14 *1238:A1 0.000147982
15 *1247:A1 9.40644e-06
16 *1187:ZN 0.000194235
17 *476:302 0.00014888
18 *476:289 0.000576461
19 *476:285 0.0006213
20 *476:275 0.000899946
21 *476:273 0.000984783
22 *476:252 0.00051182
23 *476:235 0.000375543
24 *476:222 0.00114306
25 *476:216 0.00117781
26 *476:210 0.00058696
27 *476:208 0.000761906
28 *476:202 0.000869941
29 *476:189 0.000573718
30 *476:172 0.000520312
31 *476:163 0.000506028
32 *476:161 0.000349005
33 *476:142 0.000725447
34 *476:134 0.00076562
35 *476:117 0.000620553
36 *476:111 0.000509784
37 *476:77 0.000482246
38 *476:65 0.000765392
39 *476:59 0.000671925
40 *476:55 0.000447015
41 *476:51 0.000483859
42 *476:47 0.000530755
43 *476:30 0.000499533
44 *476:24 0.000329779
45 *476:20 0.000840086
46 *476:18 0.000756032
47 *476:16 0.000490253
48 *476:14 0.000592886
49 *476:8 0.000755056
50 *476:6 0.000671524
51 *1188:B1 *830:37 9.83475e-07
52 *1210:A1 *1206:B1 1.66056e-05
53 *1210:A1 *1210:B1 8.43215e-07
54 *1210:A1 *1477:CK 1.18232e-06
55 *1210:A1 *484:97 0
56 *1238:A1 *1229:B1 2.01878e-05
57 *1238:A1 *840:39 1.58933e-05
58 *1247:A1 *493:12 8.06697e-07
59 *1257:A1 *947:A 7.19036e-06
60 *1257:A1 *1257:B1 5.52959e-06
61 *1257:A1 *1284:A2 3.17023e-05
62 *1257:A1 *1412:CK 6.05718e-06
63 *1257:A1 *496:22 7.98366e-06
64 *1257:A1 *844:45 5.43491e-06
65 *1257:A1 *844:52 1.05232e-05
66 *1266:A1 *961:A 0
67 *1266:A1 *497:38 2.39679e-06
68 *1266:A1 *497:51 4.32144e-07
69 *1266:A1 *498:28 3.09411e-06
70 *1266:A1 *498:38 8.43215e-07
71 *1275:A1 *499:61 3.22054e-05
72 *1275:A1 *500:33 1.28516e-05
73 *1284:A1 *1284:A2 7.19036e-06
74 *1284:A1 *496:22 7.19036e-06
75 *1312:A1 *1055:A1 0
76 *1312:A1 *509:96 0
77 *1321:A1 *1122:B2 1.3638e-05
78 *1321:A1 *511:26 0.000215774
79 *1321:A1 *713:18 2.14856e-06
80 *476:24 *975:A 0
81 *476:24 *1124:A1 0
82 *476:24 *1124:B2 0
83 *476:24 *487:30 2.52736e-05
84 *476:47 *1092:B2 1.11799e-05
85 *476:47 *1245:B1 0
86 *476:47 *1247:B1 0
87 *476:47 *493:12 2.75426e-06
88 *476:47 *747:8 3.76934e-05
89 *476:59 *827:88 0.000146851
90 *476:65 *1495:A 0
91 *476:65 *1502:A3 0
92 *476:65 *795:8 0
93 *476:65 *851:34 6.08244e-06
94 *476:77 *840:39 2.52965e-06
95 *476:77 *840:43 0
96 *476:117 *1020:A 2.30381e-05
97 *476:117 *1154:A1 7.02513e-05
98 *476:134 *995:A 1.49822e-05
99 *476:134 *1007:A 5.48953e-05
100 *476:134 *1062:B2 2.98252e-05
101 *476:134 *1154:A1 1.53892e-05
102 *476:134 *1154:B2 3.28688e-05
103 *476:142 *741:10 2.2406e-06
104 *476:161 *1017:A 0
105 *476:161 *1128:C2 0
106 *476:161 *823:56 3.90865e-05
107 *476:161 *830:37 1.49658e-06
108 *476:163 *1126:A2 0
109 *476:163 *1128:C2 0
110 *476:163 *851:111 0
111 *476:172 *851:111 0
112 *476:189 *1137:A2 8.80938e-06
113 *476:189 *511:22 0
114 *476:189 *833:28 2.75914e-05
115 *476:202 *511:22 0
116 *476:208 *925:A 2.05208e-05
117 *476:208 *509:86 7.52345e-05
118 *476:216 *516:16 0
119 *476:222 *828:319 0
120 *476:222 *828:335 0
121 *476:222 *828:377 0
122 *476:222 *843:30 0
123 *476:222 *843:38 0
124 *476:273 *933:A 0
125 *476:273 *1665:A 0
126 *476:273 *509:10 3.07768e-05
127 *476:273 *509:78 8.88417e-05
128 *476:273 *695:18 5.26791e-05
129 *476:273 *828:243 8.34724e-05
130 *476:275 *914:A 0
131 *476:275 *1258:B1 2.05632e-05
132 *476:275 *501:12 3.23826e-05
133 *476:275 *501:39 8.20698e-06
134 *476:285 *949:A 3.82997e-06
135 *476:285 *1258:B1 4.40711e-06
136 *476:285 *1279:A2 4.87937e-06
137 *476:285 *1285:B1 2.45847e-05
138 *476:285 *1413:CK 0
139 *476:285 *501:39 9.81927e-05
140 *476:285 *521:22 0
141 *476:289 *1279:A1 1.72301e-05
142 *476:289 *1279:A2 8.26038e-06
143 *476:289 *502:16 0
144 *476:289 *502:60 0
145 *476:289 *502:72 4.26314e-06
146 *476:289 *827:248 5.49102e-05
147 *1032:A *476:111 0
148 *1060:C2 *476:208 2.8283e-05
149 *1123:C1 *1303:A1 7.16188e-07
150 *1125:B2 *1238:A1 0
151 *1128:B *476:161 0
152 *1128:C1 *476:161 5.62244e-05
153 *1128:C1 *476:163 0
154 *1131:B *1266:A1 7.87306e-06
155 *1175:B2 *476:117 2.21838e-05
156 *1181:A1 *476:8 1.32101e-05
157 *1187:A1 *476:8 0
158 *1188:A1 *476:161 0.000106374
159 *1200:B2 *476:163 0
160 *1200:B2 *476:172 0
161 *1210:B2 *1210:A1 2.96179e-06
162 *1212:B2 *476:134 1.87885e-05
163 *1218:A1 *476:47 0.00019338
164 *1229:B2 *1238:A1 0
165 *1229:B2 *476:77 4.29646e-05
166 *1245:A1 *476:47 6.06867e-06
167 *1258:B2 *476:275 2.14856e-06
168 *1284:B2 *1257:A1 3.68798e-05
169 *1284:B2 *476:302 4.16464e-05
170 *1285:B2 *476:285 5.76144e-05
171 *1308:B2 *476:208 2.04127e-06
172 *1321:B2 *1321:A1 3.57294e-05
173 *1382:D *1321:A1 9.22998e-06
174 *1398:D *1303:A1 1.27141e-05
175 *1398:D *476:252 0
176 *1402:D *1312:A1 0
177 *1425:D *476:222 1.52083e-06
178 *1438:D *1257:A1 4.09586e-05
179 *1494:B2 *476:65 9.31049e-06
180 *1495:B2 *476:65 0
181 *221:12 *476:275 0
182 *232:8 *476:208 2.11032e-05
183 *240:12 *1303:A1 4.29713e-06
184 *240:12 *476:252 1.42373e-05
185 *240:12 *476:273 6.32461e-06
186 *244:10 *476:273 6.79048e-07
187 *268:8 *1266:A1 6.68482e-05
188 *363:20 *476:20 3.5108e-06
189 *363:29 *476:20 4.6949e-05
190 *365:20 *476:47 0
191 *365:38 *476:20 0
192 *366:14 *1321:A1 0
193 *367:18 *476:163 0
194 *367:18 *476:172 0
195 *370:14 *476:142 0
196 *411:6 *476:16 9.96886e-05
197 *411:6 *476:20 0
198 *411:12 *476:14 0.000123225
199 *425:12 *476:202 0.000129182
200 *425:12 *476:235 2.90418e-05
201 *425:12 *476:252 0.000209956
202 *427:10 *476:24 4.24402e-05
203 *427:12 *476:47 0
204 *427:18 *476:51 0.000121208
205 *427:22 *476:51 0.000383684
206 *427:30 *476:59 0.00062745
207 *427:38 *476:77 0.000131484
208 *430:10 *476:163 0.000132728
209 *434:8 *476:222 0
210 *439:12 *1303:A1 7.35445e-06
211 *440:10 *476:216 2.26283e-05
212 *441:14 *476:20 0.00013958
213 *441:16 *476:20 0.000135196
214 *441:32 *476:77 0.000220447
215 *453:10 *476:285 4.32298e-05
216 *467:62 *476:117 1.33704e-05
217 *468:26 *476:117 6.92191e-05
218 *470:34 *1188:B1 7.72792e-06
219 *471:51 *1188:B1 6.82202e-07
220 *471:53 *1188:B1 7.16188e-07
221 *473:70 *1257:A1 2.08098e-06
222 *473:70 *1266:A1 6.63032e-05
223 *473:70 *476:302 9.26282e-06
224 *474:150 *1266:A1 2.39721e-05
225 *474:150 *476:302 8.88497e-06
226 *474:152 *476:289 0
*RES
1 *1187:ZN *476:6 7.96429 
2 *476:6 *476:8 64.25 
3 *476:8 *476:14 26.5357 
4 *476:14 *476:16 52.3929 
5 *476:16 *476:18 0.928572 
6 *476:18 *476:20 84.6072 
7 *476:20 *476:24 15.4286 
8 *476:24 *476:30 18.61 
9 *476:30 *1247:A1 10.9286 
10 *476:30 *476:47 41.7143 
11 *476:47 *476:51 47.3214 
12 *476:51 *476:55 26.75 
13 *476:55 *476:59 48 
14 *476:59 *476:65 48.9643 
15 *476:65 *476:77 32.2129 
16 *476:77 *1238:A1 30.8571 
17 *476:77 *1229:A1 5 
18 *476:24 *1220:A1 10 
19 *1187:ZN *476:111 26.25 
20 *476:111 *476:117 43.8214 
21 *476:117 *1210:A1 21.75 
22 *476:117 *476:134 30.6786 
23 *476:134 *476:142 47.1143 
24 *476:142 *1188:B1 11.1429 
25 *476:142 *476:161 24.8571 
26 *476:161 *476:163 26.0357 
27 *476:163 *1200:A1 10 
28 *476:163 *476:172 30.1072 
29 *476:172 *1321:A1 43.2143 
30 *476:172 *476:189 8.39286 
31 *476:189 *1294:A1 10 
32 *476:189 *476:202 24.7971 
33 *476:202 *476:208 38.9286 
34 *476:208 *476:210 52.75 
35 *476:210 *476:216 16.9286 
36 *476:216 *476:222 46.8243 
37 *476:222 *1275:A1 13.125 
38 *476:202 *476:235 6.09 
39 *476:235 *1312:A1 25.3214 
40 *476:235 *476:252 12.2229 
41 *476:252 *1303:A1 14.75 
42 *476:252 *476:273 47.4286 
43 *476:273 *476:275 64.25 
44 *476:275 *476:285 43.4643 
45 *476:285 *476:289 43.25 
46 *476:289 *1266:A1 34.75 
47 *476:289 *476:302 5 
48 *476:302 *1284:A1 10.75 
49 *476:302 *1257:A1 24.2143 
*END

*D_NET *480 0.00318459
*CONN
*I *1198:A2 I *D OAI22_X1
*I *1195:A2 I *D NAND2_X1
*I *1353:B2 I *D OAI22_X1
*I *1201:A2 I *D OAI22_X1
*I *1200:A2 I *D OAI22_X1
*I *1202:A2 I *D OAI22_X1
*I *1196:A2 I *D OAI22_X1
*I *1197:A2 I *D OAI22_X1
*I *1199:A2 I *D OAI22_X1
*I *1194:ZN O *D OR2_X2
*CAP
1 *1198:A2 0
2 *1195:A2 0
3 *1353:B2 0
4 *1201:A2 0
5 *1200:A2 0
6 *1202:A2 0
7 *1196:A2 5.86656e-05
8 *1197:A2 0
9 *1199:A2 7.54015e-06
10 *1194:ZN 0.00032515
11 *480:72 0.000201328
12 *480:62 0.000190832
13 *480:54 0.000221307
14 *480:40 0.000380703
15 *480:32 0.000289258
16 *480:23 0.000118725
17 *480:14 0.000177974
18 *480:12 0.00045855
19 *1196:A2 *1196:B1 2.83434e-06
20 *1196:A2 *1202:B1 2.16072e-07
21 *1196:A2 *833:60 1.53342e-05
22 *480:14 *1198:B1 9.19672e-05
23 *480:14 *730:10 0
24 *480:23 *1197:B1 5.33958e-06
25 *480:23 *1198:B1 7.72792e-06
26 *480:23 *1199:B1 9.62051e-07
27 *480:23 *481:63 1.62678e-05
28 *480:32 *481:12 8.26038e-06
29 *480:32 *481:63 0.00010056
30 *480:40 *1329:A3 0
31 *480:40 *1489:CK 0
32 *480:40 *481:12 1.02178e-05
33 *480:54 *1004:A 7.72537e-06
34 *480:54 *1141:A2 3.0227e-05
35 *480:54 *481:21 5.99152e-05
36 *480:54 *833:69 2.56379e-05
37 *480:54 *833:86 1.06296e-05
38 *480:62 *1200:B1 1.90208e-06
39 *480:62 *481:21 2.75346e-06
40 *480:62 *481:25 3.89107e-05
41 *480:62 *833:69 6.39696e-06
42 *480:72 *1126:A2 4.97191e-06
43 *480:72 *1200:B1 2.16072e-07
44 *480:72 *1202:B1 2.61827e-06
45 *480:72 *481:29 8.30282e-06
46 *480:72 *729:14 8.26038e-06
47 *480:72 *833:60 2.56379e-05
48 *480:72 *833:69 5.11118e-06
49 *1087:B1 *480:12 0
50 *1197:A1 *480:23 7.72537e-06
51 *1197:B2 *480:32 4.01666e-06
52 *1197:B2 *480:40 0
53 *1198:A1 *480:14 2.39679e-06
54 *1199:B2 *480:14 0
55 *1200:B2 *480:72 2.87248e-06
56 *1353:A1 *480:40 1.43238e-06
57 *1353:A1 *480:54 7.16188e-07
58 *1484:D *1196:A2 2.61603e-05
59 *1485:D *480:54 1.88906e-05
60 *1486:D *480:72 7.47805e-05
61 *1487:D *480:14 0
62 *1488:D *480:12 4.21902e-05
63 *1489:D *480:32 0
64 *1489:D *480:40 1.43542e-05
65 *1491:D *480:40 3.37884e-05
66 *301:12 *1196:A2 1.48912e-05
67 *313:10 *1196:A2 0
68 *367:18 *480:62 1.14365e-05
69 *389:14 *480:12 0
*RES
1 *1194:ZN *480:12 48 
2 *480:12 *480:14 15.75 
3 *480:14 *1199:A2 5.92857 
4 *480:14 *480:23 4.75 
5 *480:23 *1197:A2 5 
6 *480:23 *480:32 11.1786 
7 *480:32 *480:40 23.7143 
8 *480:40 *480:54 32.1786 
9 *480:54 *480:62 16.3571 
10 *480:62 *480:72 18.7857 
11 *480:72 *1196:A2 22.2857 
12 *480:72 *1202:A2 5 
13 *480:62 *1200:A2 5 
14 *480:54 *1201:A2 5 
15 *480:40 *1353:B2 5 
16 *480:32 *1195:A2 5 
17 *480:12 *1198:A2 5 
*END

*D_NET *481 0.00267653
*CONN
*I *1198:B1 I *D OAI22_X1
*I *1199:B1 I *D OAI22_X1
*I *1197:B1 I *D OAI22_X1
*I *1201:B1 I *D OAI22_X1
*I *1200:B1 I *D OAI22_X1
*I *1202:B1 I *D OAI22_X1
*I *1196:B1 I *D OAI22_X1
*I *1353:A2 I *D OAI22_X1
*I *1195:ZN O *D NAND2_X1
*CAP
1 *1198:B1 0.000163568
2 *1199:B1 6.9453e-06
3 *1197:B1 5.02253e-05
4 *1201:B1 0
5 *1200:B1 6.0543e-06
6 *1202:B1 1.48276e-05
7 *1196:B1 6.82815e-05
8 *1353:A2 8.12034e-06
9 *1195:ZN 0
10 *481:69 9.91497e-05
11 *481:63 0.000320539
12 *481:29 0.000229705
13 *481:25 0.000194727
14 *481:21 0.00014977
15 *481:12 0.000311093
16 *481:4 0.000310271
17 *1198:B1 *730:10 1.87199e-05
18 *1198:B1 *730:16 1.88334e-06
19 *481:12 *1489:CK 3.16366e-05
20 *481:12 *732:10 6.0887e-06
21 *481:12 *833:86 7.32582e-05
22 *481:21 *1141:A2 0
23 *481:21 *833:86 0
24 *481:25 *851:113 0
25 *481:29 *1126:A2 0
26 *481:29 *851:113 0
27 *481:63 *732:10 0
28 *1196:A2 *1196:B1 2.83434e-06
29 *1196:A2 *1202:B1 2.16072e-07
30 *1197:A1 *1197:B1 3.09143e-06
31 *1197:B2 *1197:B1 2.75346e-06
32 *1198:A1 *1198:B1 8.43215e-07
33 *1198:B2 *1198:B1 2.39679e-06
34 *1199:B2 *1199:B1 2.75346e-06
35 *1199:B2 *481:69 0
36 *1200:B2 *1200:B1 2.39679e-06
37 *1200:B2 *481:29 3.90865e-05
38 *1201:B2 *481:21 8.97219e-05
39 *1201:B2 *481:25 2.75346e-06
40 *1353:A1 *1353:A2 1.18547e-06
41 *1353:A1 *481:12 6.79532e-06
42 *1353:A1 *481:21 1.21774e-06
43 *1484:D *1196:B1 5.11118e-06
44 *1485:D *481:21 4.51285e-05
45 *1486:D *481:25 1.7326e-06
46 *1486:D *481:29 2.89931e-05
47 *1487:D *1198:B1 8.62472e-06
48 *1487:D *481:69 6.1914e-06
49 *1491:D *481:12 1.91498e-06
50 *473:41 *481:69 0
51 *480:14 *1198:B1 9.19672e-05
52 *480:23 *1197:B1 5.33958e-06
53 *480:23 *1198:B1 7.72792e-06
54 *480:23 *1199:B1 9.62051e-07
55 *480:23 *481:63 1.62678e-05
56 *480:32 *481:12 8.26038e-06
57 *480:32 *481:63 0.00010056
58 *480:40 *481:12 1.02178e-05
59 *480:54 *481:21 5.99152e-05
60 *480:62 *1200:B1 1.90208e-06
61 *480:62 *481:21 2.75346e-06
62 *480:62 *481:25 3.89107e-05
63 *480:72 *1200:B1 2.16072e-07
64 *480:72 *1202:B1 2.61827e-06
65 *480:72 *481:29 8.30282e-06
*RES
1 *1195:ZN *481:4 5 
2 *481:4 *481:12 24.2143 
3 *481:12 *1353:A2 5.92857 
4 *481:12 *481:21 15.75 
5 *481:21 *481:25 5.35714 
6 *481:25 *481:29 17.3571 
7 *481:29 *1196:B1 12.3571 
8 *481:29 *1202:B1 7.17857 
9 *481:25 *1200:B1 6.25 
10 *481:21 *1201:B1 5 
11 *481:4 *481:63 14.6786 
12 *481:63 *481:69 13.6429 
13 *481:69 *1197:B1 10.4286 
14 *481:69 *1199:B1 5.75 
15 *481:63 *1198:B1 34.4643 
*END

*D_NET *483 0.00332022
*CONN
*I *1208:A2 I *D OAI22_X1
*I *1209:A2 I *D OAI22_X1
*I *1207:A2 I *D OAI22_X1
*I *1205:A2 I *D NAND2_X1
*I *1352:B2 I *D OAI22_X1
*I *1211:A2 I *D OAI22_X1
*I *1212:A2 I *D OAI22_X1
*I *1206:A2 I *D OAI22_X1
*I *1210:A2 I *D OAI22_X1
*I *1204:ZN O *D OR2_X2
*CAP
1 *1208:A2 0
2 *1209:A2 0
3 *1207:A2 0
4 *1205:A2 0
5 *1352:B2 0
6 *1211:A2 6.74029e-05
7 *1212:A2 0
8 *1206:A2 8.79909e-05
9 *1210:A2 0
10 *1204:ZN 0.000107417
11 *483:69 0.00016497
12 *483:52 0.000264051
13 *483:46 0.00042534
14 *483:44 0.000355737
15 *483:32 0.000308045
16 *483:26 0.000245404
17 *483:20 0.000166031
18 *483:18 0.000151217
19 *1206:A2 *1206:B1 0
20 *1206:A2 *1212:B1 7.16188e-07
21 *1206:A2 *1482:CK 4.8503e-05
22 *1206:A2 *830:86 2.49793e-05
23 *1211:A2 *1142:A1 2.11677e-05
24 *1211:A2 *1477:CK 2.237e-05
25 *1211:A2 *484:64 4.32144e-07
26 *1211:A2 *484:76 2.16072e-07
27 *1211:A2 *829:33 8.88497e-06
28 *483:18 *999:A 1.70336e-05
29 *483:18 *832:47 6.63867e-05
30 *483:20 *1208:B1 9.99626e-06
31 *483:20 *832:47 2.34865e-05
32 *483:26 *1208:B1 2.16072e-07
33 *483:26 *484:21 2.66403e-05
34 *483:26 *832:38 2.6197e-05
35 *483:26 *832:47 1.95465e-05
36 *483:32 *1082:B2 1.23609e-05
37 *483:32 *484:12 3.86073e-05
38 *483:32 *484:21 1.21774e-06
39 *483:44 *1082:B2 0
40 *483:44 *484:50 6.38328e-07
41 *483:44 *484:64 6.38328e-07
42 *483:44 *829:8 5.74951e-06
43 *483:46 *1478:CK 2.13682e-06
44 *483:46 *484:64 1.90676e-05
45 *483:46 *829:18 1.78598e-05
46 *483:52 *1062:A1 0
47 *483:52 *1210:B1 2.28671e-05
48 *483:52 *1478:CK 1.72966e-05
49 *483:52 *484:76 0
50 *483:52 *484:97 4.80378e-06
51 *483:69 *1062:A1 0
52 *483:69 *1212:B1 2.11458e-06
53 *483:69 *1477:CK 2.51177e-05
54 *483:69 *484:97 3.82016e-05
55 *483:69 *830:86 8.60019e-06
56 *1207:B2 *483:32 9.07641e-05
57 *1208:B2 *483:18 3.35822e-05
58 *1208:B2 *483:20 2.39679e-06
59 *1210:B2 *483:52 5.62801e-05
60 *1210:B2 *483:69 1.2453e-05
61 *1212:B2 *1206:A2 6.07779e-06
62 *1476:D *1206:A2 1.88906e-05
63 *1477:D *1211:A2 6.24846e-06
64 *1478:D *483:52 3.82525e-05
65 *1479:D *483:26 1.88906e-05
66 *1480:D *483:18 1.00571e-05
67 *1483:D *483:44 2.06572e-05
68 *363:90 *483:69 2.29071e-05
69 *365:73 *483:18 6.07323e-06
70 *365:87 *483:26 0
71 *365:87 *483:32 3.34736e-06
72 *465:33 *483:18 4.38826e-05
73 *474:258 *483:20 7.19036e-06
74 *474:275 *483:18 4.22192e-05
75 *474:275 *483:20 2.39679e-06
*RES
1 *1204:ZN *483:18 31.1071 
2 *483:18 *483:20 5.75 
3 *483:20 *483:26 15.9286 
4 *483:26 *483:32 16.9286 
5 *483:32 *483:44 20.0714 
6 *483:44 *483:46 18.25 
7 *483:46 *483:52 27.0714 
8 *483:52 *1210:A2 10 
9 *483:52 *483:69 15.9286 
10 *483:69 *1206:A2 16.8571 
11 *483:69 *1212:A2 5 
12 *483:46 *1211:A2 22.9286 
13 *483:44 *1352:B2 5 
14 *483:32 *1205:A2 5 
15 *483:26 *1207:A2 5 
16 *483:20 *1209:A2 5 
17 *483:18 *1208:A2 5 
*END

*D_NET *484 0.00277735
*CONN
*I *1352:A2 I *D OAI22_X1
*I *1211:B1 I *D OAI22_X1
*I *1212:B1 I *D OAI22_X1
*I *1206:B1 I *D OAI22_X1
*I *1210:B1 I *D OAI22_X1
*I *1208:B1 I *D OAI22_X1
*I *1209:B1 I *D OAI22_X1
*I *1207:B1 I *D OAI22_X1
*I *1205:ZN O *D NAND2_X1
*CAP
1 *1352:A2 0
2 *1211:B1 0
3 *1212:B1 6.42961e-06
4 *1206:B1 9.59157e-05
5 *1210:B1 2.71467e-05
6 *1208:B1 5.41655e-05
7 *1209:B1 0
8 *1207:B1 0
9 *1205:ZN 0.000267149
10 *484:97 0.000182051
11 *484:76 0.000231494
12 *484:64 0.000281418
13 *484:50 0.000286052
14 *484:21 0.000180164
15 *484:12 0.000263872
16 *1208:B1 *1467:CK 0
17 *1210:B1 *1127:A1 0
18 *484:12 *1660:A 0
19 *484:12 *831:8 2.14856e-06
20 *484:21 *831:8 5.43491e-06
21 *484:21 *831:34 1.78869e-05
22 *484:50 *1082:B2 2.78392e-05
23 *484:50 *829:8 1.88906e-05
24 *484:50 *829:12 2.85958e-05
25 *484:64 *1330:A1 4.92863e-06
26 *484:64 *1478:CK 1.25557e-05
27 *484:64 *829:12 5.55202e-05
28 *484:64 *829:18 8.56272e-05
29 *484:76 *1003:A 8.26038e-06
30 *484:76 *1477:CK 3.55632e-05
31 *484:76 *1478:CK 2.59575e-05
32 *484:97 *1003:A 0
33 *484:97 *1127:A1 0
34 *484:97 *1477:CK 3.95226e-06
35 *1206:A2 *1206:B1 0
36 *1206:A2 *1212:B1 7.16188e-07
37 *1206:B2 *1206:B1 2.75346e-06
38 *1207:B2 *484:12 7.72792e-06
39 *1210:A1 *1206:B1 1.66056e-05
40 *1210:A1 *1210:B1 8.43215e-07
41 *1210:A1 *484:97 0
42 *1210:B2 *1210:B1 2.39679e-06
43 *1210:B2 *484:76 1.1025e-05
44 *1211:A2 *484:64 4.32144e-07
45 *1211:A2 *484:76 2.16072e-07
46 *1212:B2 *1206:B1 9.22996e-05
47 *1212:B2 *1212:B1 2.75346e-06
48 *1352:A1 *484:50 1.48912e-05
49 *1477:D *484:64 0.0001127
50 *1478:D *484:76 1.76747e-05
51 *1479:D *484:21 4.51285e-05
52 *1481:D *484:12 1.77697e-05
53 *1483:D *484:50 3.65322e-06
54 *363:90 *484:97 1.86809e-06
55 *365:89 *484:50 3.96575e-05
56 *365:95 *484:64 1.28122e-06
57 *473:14 *484:12 8.39712e-06
58 *474:258 *1208:B1 2.52965e-06
59 *483:20 *1208:B1 9.99626e-06
60 *483:26 *1208:B1 2.16072e-07
61 *483:26 *484:21 2.66403e-05
62 *483:32 *484:12 3.86073e-05
63 *483:32 *484:21 1.21774e-06
64 *483:44 *484:50 6.38328e-07
65 *483:44 *484:64 6.38328e-07
66 *483:46 *484:64 1.90676e-05
67 *483:52 *1210:B1 2.28671e-05
68 *483:52 *484:76 0
69 *483:52 *484:97 4.80378e-06
70 *483:69 *1212:B1 2.11458e-06
71 *483:69 *484:97 3.82016e-05
*RES
1 *1205:ZN *484:12 31.0357 
2 *484:12 *1207:B1 5 
3 *484:12 *484:21 15.6786 
4 *484:21 *1209:B1 5 
5 *484:21 *1208:B1 10.75 
6 *1205:ZN *484:50 31.7143 
7 *484:50 *484:64 33.2857 
8 *484:64 *484:76 22.1071 
9 *484:76 *1210:B1 13.3571 
10 *484:76 *484:97 14.0714 
11 *484:97 *1206:B1 17.8571 
12 *484:97 *1212:B1 6.25 
13 *484:64 *1211:B1 5 
14 *484:50 *1352:A2 5 
*END

*D_NET *487 0.00557367
*CONN
*I *1351:A2 I *D OAI22_X1
*I *1222:B1 I *D OAI22_X1
*I *1220:B1 I *D OAI22_X1
*I *1218:B1 I *D OAI22_X1
*I *1221:B1 I *D OAI22_X1
*I *1219:B1 I *D OAI22_X1
*I *1217:B1 I *D OAI22_X1
*I *1216:B1 I *D OAI22_X1
*I *1215:ZN O *D NAND2_X2
*CAP
1 *1351:A2 0.000154117
2 *1222:B1 4.05729e-06
3 *1220:B1 0
4 *1218:B1 0.00012938
5 *1221:B1 0
6 *1219:B1 0.000215381
7 *1217:B1 0
8 *1216:B1 5.15529e-05
9 *1215:ZN 0.000212468
10 *487:123 0.000158174
11 *487:121 0.000278336
12 *487:97 0.000372978
13 *487:87 0.000265922
14 *487:57 0.000458765
15 *487:44 0.000467261
16 *487:30 0.000492302
17 *487:26 0.000685352
18 *1216:B1 *1215:A1 0
19 *1216:B1 *1242:A1 2.23415e-06
20 *1216:B1 *493:41 4.24863e-05
21 *1218:B1 *1472:CK 1.21717e-05
22 *1219:B1 *1107:B2 0
23 *1219:B1 *1471:CK 6.56185e-06
24 *1219:B1 *746:8 0
25 *1219:B1 *770:8 0
26 *1219:B1 *837:20 1.16502e-05
27 *1219:B1 *837:24 1.77907e-05
28 *1219:B1 *837:30 7.69103e-05
29 *1351:A2 *1451:CK 0
30 *1351:A2 *837:85 3.30346e-05
31 *487:26 *493:41 3.733e-05
32 *487:26 *827:29 6.49796e-05
33 *487:26 *839:93 0
34 *487:26 *839:102 0
35 *487:44 *982:A 3.65322e-06
36 *487:44 *748:8 0
37 *487:44 *772:12 0
38 *487:44 *839:22 7.87811e-06
39 *487:44 *839:31 1.07733e-05
40 *487:44 *839:35 1.42432e-05
41 *487:57 *977:A 3.09143e-06
42 *487:57 *1244:B1 0
43 *487:57 *744:8 0
44 *487:57 *768:8 1.50189e-05
45 *487:57 *837:20 5.7295e-06
46 *487:87 *839:35 1.05489e-05
47 *487:97 *1472:CK 6.38328e-07
48 *487:97 *839:35 4.35922e-05
49 *487:97 *839:42 5.01029e-05
50 *487:97 *839:57 0.000215948
51 *487:121 *1249:B1 3.09143e-06
52 *487:121 *493:41 0.000268035
53 *487:121 *493:45 7.20568e-06
54 *487:121 *837:16 0
55 *1217:B2 *487:44 3.89036e-05
56 *1218:A1 *1218:B1 6.0887e-06
57 *1218:B2 *1218:B1 8.77866e-06
58 *1219:B2 *1219:B1 2.15993e-05
59 *1220:B2 *487:87 2.39679e-06
60 *1221:B2 *1219:B1 2.75346e-06
61 *1221:B2 *487:57 3.01154e-05
62 *1222:B2 *487:121 1.72405e-05
63 *1244:A1 *487:44 9.74193e-06
64 *1244:B2 *487:44 0
65 *1246:B2 *1219:B1 4.56876e-05
66 *1248:B2 *487:57 8.36943e-05
67 *1444:D *1222:B1 1.87637e-06
68 *1444:D *1351:A2 8.34424e-06
69 *1444:D *487:121 2.00206e-05
70 *1448:D *487:97 9.24779e-05
71 *1468:D *1351:A2 7.29164e-07
72 *1468:D *487:121 0
73 *1470:D *487:30 6.81048e-07
74 *1470:D *487:97 0.000204764
75 *1472:D *1218:B1 0
76 *1473:D *487:44 0
77 *365:22 *487:44 0
78 *365:22 *487:87 0
79 *365:26 *487:44 0
80 *365:26 *487:57 0
81 *365:32 *1219:B1 0
82 *365:32 *487:57 0
83 *365:38 *1219:B1 0
84 *365:46 *1351:A2 0
85 *383:10 *487:121 1.36837e-05
86 *427:10 *487:30 9.22998e-06
87 *473:213 *1351:A2 0
88 *473:213 *487:121 1.88489e-05
89 *476:24 *487:30 2.52736e-05
*RES
1 *1215:ZN *1216:B1 16.6071 
2 *1215:ZN *487:26 28.7143 
3 *487:26 *487:30 33.0714 
4 *487:30 *487:44 25.6429 
5 *487:44 *1217:B1 5 
6 *487:44 *487:57 28.2143 
7 *487:57 *1219:B1 33.3214 
8 *487:57 *1221:B1 5 
9 *487:30 *487:87 2.75 
10 *487:87 *487:97 49.1429 
11 *487:97 *1218:B1 19.9643 
12 *487:87 *1220:B1 5 
13 *487:26 *487:121 46.7143 
14 *487:121 *487:123 5 
15 *487:123 *1222:B1 5.5 
16 *487:123 *1351:A2 22.0357 
*END

*D_NET *489 0.00494148
*CONN
*I *1229:B1 I *D OAI22_X1
*I *1231:B1 I *D OAI22_X1
*I *1230:B1 I *D OAI22_X1
*I *1350:A2 I *D OAI22_X1
*I *1228:B1 I *D OAI22_X1
*I *1226:B1 I *D OAI22_X1
*I *1227:B1 I *D OAI22_X1
*I *1225:B1 I *D OAI22_X1
*I *1224:ZN O *D NAND2_X1
*CAP
1 *1229:B1 0.000103517
2 *1231:B1 8.63425e-06
3 *1230:B1 0
4 *1350:A2 0.000201594
5 *1228:B1 0.00023959
6 *1226:B1 0.000340386
7 *1227:B1 1.67992e-05
8 *1225:B1 0.000109133
9 *1224:ZN 0.000148575
10 *489:72 0.000527183
11 *489:70 0.000363347
12 *489:60 0.000523667
13 *489:54 0.00054154
14 *489:31 0.00069123
15 *489:20 0.000206747
16 *1225:B1 *1224:A1 7.29164e-07
17 *1225:B1 *827:23 1.50501e-05
18 *1225:B1 *839:93 7.87454e-06
19 *1225:B1 *839:102 2.36394e-05
20 *1226:B1 *1650:A 7.95177e-06
21 *1226:B1 *1666:A 0
22 *1226:B1 *823:154 0
23 *1226:B1 *828:75 4.80186e-06
24 *1226:B1 *828:89 0
25 *1226:B1 *828:95 0
26 *1226:B1 *828:104 0
27 *1226:B1 *837:10 9.90776e-06
28 *1227:B1 *827:12 1.91954e-06
29 *1229:B1 *1653:A 8.43215e-07
30 *1229:B1 *828:113 1.94213e-05
31 *1229:B1 *840:16 6.70173e-05
32 *1350:A2 *1349:A2 0
33 *489:20 *827:12 3.83909e-06
34 *489:31 *839:12 7.77645e-05
35 *489:54 *1091:A2 1.32167e-05
36 *489:54 *763:12 2.38596e-05
37 *489:54 *828:113 4.11886e-05
38 *489:54 *839:12 2.35341e-05
39 *489:60 *1460:CK 0
40 *489:60 *1653:A 0
41 *489:60 *840:16 0
42 *489:70 *991:A 0
43 *489:70 *491:58 6.92191e-05
44 *489:70 *828:49 2.04029e-06
45 *489:70 *828:60 5.10662e-06
46 *489:70 *828:69 0
47 *1078:C1 *1226:B1 0
48 *1093:A *489:31 1.05571e-05
49 *1093:A *489:54 7.62827e-05
50 *1226:A1 *1226:B1 8.43215e-07
51 *1226:B2 *1226:B1 0
52 *1227:B2 *1227:B1 2.8946e-05
53 *1227:B2 *489:20 6.21078e-05
54 *1238:A1 *1229:B1 2.01878e-05
55 *1350:A1 *1350:A2 2.39679e-06
56 *1460:D *489:60 7.75533e-06
57 *1461:D *489:70 2.39679e-06
58 *1464:D *1227:B1 1.26019e-05
59 *1464:D *489:20 3.32615e-05
60 *1464:D *489:31 7.11905e-07
61 *1466:D *1225:B1 9.10562e-05
62 *288:6 *1225:B1 0
63 *363:57 *1228:B1 0
64 *473:195 *1350:A2 0.000147192
65 *473:235 *1350:A2 3.09411e-06
66 *474:44 *1227:B1 1.21774e-06
*RES
1 *1224:ZN *1225:B1 24.6786 
2 *1224:ZN *489:20 11.25 
3 *489:20 *1227:B1 7.75 
4 *489:20 *489:31 24.25 
5 *489:31 *1226:B1 43.9286 
6 *489:31 *489:54 27.3214 
7 *489:54 *489:60 29.2143 
8 *489:60 *489:70 38.6429 
9 *489:70 *489:72 8.25 
10 *489:72 *1228:B1 29.1072 
11 *489:72 *1350:A2 38.9643 
12 *489:70 *1230:B1 5 
13 *489:60 *1231:B1 6.25 
14 *489:54 *1229:B1 23.1429 
*END

*D_NET *491 0.00442072
*CONN
*I *1234:B1 I *D OAI22_X1
*I *1236:B1 I *D OAI22_X1
*I *1237:B1 I *D OAI22_X1
*I *1238:B1 I *D OAI22_X1
*I *1240:B1 I *D OAI22_X1
*I *1239:B1 I *D OAI22_X1
*I *1235:B1 I *D OAI22_X1
*I *1349:A2 I *D OAI22_X1
*I *1233:ZN O *D NAND2_X1
*CAP
1 *1234:B1 0.000123278
2 *1236:B1 0
3 *1237:B1 0.000192165
4 *1238:B1 0.000235038
5 *1240:B1 0
6 *1239:B1 1.07503e-05
7 *1235:B1 0
8 *1349:A2 0.0002835
9 *1233:ZN 6.43685e-05
10 *491:73 0.000415798
11 *491:69 0.000387472
12 *491:58 0.00030236
13 *491:45 0.000312718
14 *491:26 0.000606183
15 *491:16 0.000340829
16 *491:10 0.000241448
17 *1234:B1 *1456:CK 0.000132432
18 *1234:B1 *763:12 0
19 *1237:B1 *976:A 4.9678e-06
20 *1237:B1 *1140:B1 0
21 *1237:B1 *823:136 1.50704e-05
22 *1238:B1 *1125:B1 2.7964e-05
23 *1238:B1 *1452:CK 0
24 *1239:B1 *823:142 1.28122e-06
25 *1349:A2 *513:16 7.19506e-06
26 *491:10 *763:12 2.31008e-05
27 *491:26 *983:A 1.26699e-05
28 *491:26 *1078:C2 2.57155e-06
29 *491:26 *764:12 0
30 *491:26 *828:89 0
31 *491:73 *976:A 0
32 *491:73 *823:142 0
33 *1078:A *491:26 2.00802e-05
34 *1078:B *491:26 7.19036e-06
35 *1078:C1 *491:26 1.00571e-05
36 *1140:A *491:58 1.08355e-06
37 *1140:B2 *1239:B1 2.16072e-07
38 *1140:B2 *491:58 2.06738e-05
39 *1140:C1 *1237:B1 8.62199e-06
40 *1140:C1 *1239:B1 2.39679e-06
41 *1226:A1 *491:26 0
42 *1226:B2 *491:26 3.09411e-06
43 *1230:B2 *491:58 5.03084e-05
44 *1235:B2 *1349:A2 8.43215e-07
45 *1235:B2 *491:26 1.5896e-05
46 *1235:B2 *491:45 0
47 *1235:B2 *491:58 3.52786e-06
48 *1236:B2 *1234:B1 4.55949e-09
49 *1236:B2 *491:10 5.90424e-05
50 *1236:B2 *491:16 1.30207e-05
51 *1236:B2 *491:26 8.43215e-07
52 *1237:B2 *1237:B1 2.75346e-06
53 *1238:B2 *1238:B1 2.39679e-06
54 *1239:B2 *491:58 6.32202e-06
55 *1239:B2 *491:69 4.12796e-06
56 *1240:B2 *1238:B1 3.96392e-05
57 *1240:B2 *491:73 2.75346e-06
58 *1349:A1 *1349:A2 1.72405e-05
59 *1350:A1 *1349:A2 0
60 *1350:A2 *1349:A2 0
61 *1452:D *1238:B1 8.71936e-05
62 *1453:D *491:73 4.51285e-05
63 *1456:D *1234:B1 0
64 *1456:D *491:16 3.51536e-06
65 *1457:D *491:26 8.08571e-05
66 *1459:D *1349:A2 1.00571e-05
67 *1467:D *1349:A2 2.44329e-05
68 *283:8 *1237:B1 1.46625e-05
69 *283:8 *491:69 6.32461e-06
70 *442:12 *1237:B1 2.97556e-06
71 *473:207 *491:26 4.10606e-05
72 *473:235 *1349:A2 0
73 *489:70 *491:58 6.92191e-05
*RES
1 *1233:ZN *491:10 18.5714 
2 *491:10 *491:16 10.6786 
3 *491:16 *491:26 42.7857 
4 *491:26 *1349:A2 44.6429 
5 *491:26 *491:45 7.96429 
6 *491:45 *1235:B1 10 
7 *491:45 *491:58 32.9643 
8 *491:58 *1239:B1 11.25 
9 *491:58 *491:69 1.60714 
10 *491:69 *491:73 24.25 
11 *491:73 *1240:B1 5 
12 *491:73 *1238:B1 33.1072 
13 *491:69 *1237:B1 41.25 
14 *491:16 *1236:B1 5 
15 *491:10 *1234:B1 25.5 
*END

*D_NET *493 0.00523974
*CONN
*I *1248:B1 I *D OAI22_X1
*I *1244:B1 I *D OAI22_X1
*I *1348:A2 I *D OAI22_X1
*I *1246:B1 I *D OAI22_X1
*I *1249:B1 I *D OAI22_X1
*I *1243:B1 I *D OAI22_X1
*I *1245:B1 I *D OAI22_X1
*I *1247:B1 I *D OAI22_X1
*I *1242:ZN O *D NAND2_X1
*CAP
1 *1248:B1 0
2 *1244:B1 9.48014e-05
3 *1348:A2 3.38479e-05
4 *1246:B1 0.000103097
5 *1249:B1 7.37486e-06
6 *1243:B1 8.04933e-05
7 *1245:B1 1.29101e-05
8 *1247:B1 3.588e-05
9 *1242:ZN 1.60042e-05
10 *493:89 0.000367856
11 *493:68 0.000691449
12 *493:62 0.000363959
13 *493:60 0.000313844
14 *493:45 0.000335847
15 *493:41 0.000441151
16 *493:30 0.000492204
17 *493:12 0.000279323
18 *493:8 0.000246537
19 *1243:B1 *1242:A1 1.86809e-06
20 *1245:B1 *839:57 3.58094e-06
21 *1246:B1 *837:30 6.41528e-06
22 *1247:B1 *839:57 1.28019e-05
23 *493:8 *1242:A1 1.72426e-05
24 *493:41 *1242:A1 2.41432e-06
25 *493:41 *1468:CK 0
26 *493:41 *827:29 3.82997e-06
27 *493:41 *839:89 0
28 *493:41 *839:93 0
29 *493:68 *1445:CK 2.01083e-05
30 *493:68 *837:20 6.93205e-05
31 *493:89 *973:A 1.20697e-05
32 *493:89 *986:A 1.16067e-05
33 *493:89 *1107:A1 1.39858e-05
34 *1216:B1 *493:41 4.24863e-05
35 *1244:A1 *1244:B1 1.58653e-05
36 *1244:A1 *493:60 0
37 *1244:B2 *1244:B1 2.75346e-06
38 *1245:A1 *1245:B1 1.21774e-06
39 *1245:A1 *493:12 0
40 *1245:B2 *1245:B1 2.75346e-06
41 *1245:B2 *1247:B1 0
42 *1246:B2 *1246:B1 3.83757e-05
43 *1247:A1 *493:12 8.06697e-07
44 *1247:B2 *1247:B1 2.75346e-06
45 *1248:B2 *1244:B1 2.39679e-06
46 *1248:B2 *493:68 1.16751e-05
47 *1249:B2 *493:60 1.72405e-05
48 *1348:A1 *493:89 0
49 *1444:D *493:45 0
50 *1445:D *493:60 3.01743e-06
51 *1445:D *493:62 5.10087e-06
52 *1445:D *493:68 1.58152e-05
53 *1447:D *1246:B1 9.94477e-05
54 *1447:D *493:68 4.2375e-05
55 *1448:D *493:12 8.727e-07
56 *1468:D *493:41 0
57 *1468:D *493:45 2.55787e-06
58 *1469:D *493:68 0.000103492
59 *1471:D *1246:B1 6.9115e-05
60 *1471:D *493:68 9.24779e-05
61 *1473:D *1244:B1 3.72354e-05
62 *1474:D *1243:B1 8.62655e-06
63 *1474:D *493:41 3.5108e-06
64 *1475:D *1348:A2 4.4061e-05
65 *363:12 *493:8 1.55671e-05
66 *363:12 *493:12 0.000140721
67 *365:16 *493:12 7.18184e-06
68 *473:213 *493:60 0
69 *474:60 *493:12 0
70 *476:47 *1245:B1 0
71 *476:47 *1247:B1 0
72 *476:47 *493:12 2.75426e-06
73 *487:26 *493:41 3.733e-05
74 *487:57 *1244:B1 0
75 *487:121 *1249:B1 3.09143e-06
76 *487:121 *493:41 0.000268035
77 *487:121 *493:45 7.20568e-06
*RES
1 *1242:ZN *493:8 12.2857 
2 *493:8 *493:12 33.75 
3 *493:12 *1247:B1 9.17857 
4 *493:12 *1245:B1 6.75 
5 *493:8 *493:30 5 
6 *493:30 *1243:B1 13.1786 
7 *493:30 *493:41 50.75 
8 *493:41 *493:45 3.17857 
9 *493:45 *1249:B1 5.75 
10 *493:45 *493:60 36.7857 
11 *493:60 *493:62 1.60714 
12 *493:62 *493:68 40.8572 
13 *493:68 *1246:B1 30.6429 
14 *493:68 *493:89 46.2143 
15 *493:89 *1348:A2 9.25 
16 *493:62 *1244:B1 21.4286 
17 *493:60 *1248:B1 10 
*END

*D_NET *496 0.00536242
*CONN
*I *1259:B1 I *D OAI22_X1
*I *1254:B1 I *D OAI22_X1
*I *1347:A2 I *D OAI22_X1
*I *1256:B1 I *D OAI22_X1
*I *1258:B1 I *D OAI22_X1
*I *1257:B1 I *D OAI22_X1
*I *1253:B1 I *D OAI22_X1
*I *1255:B1 I *D OAI22_X1
*I *1252:ZN O *D NAND2_X2
*CAP
1 *1259:B1 0
2 *1254:B1 0.000247959
3 *1347:A2 0
4 *1256:B1 0.000222747
5 *1258:B1 0.000136961
6 *1257:B1 2.4939e-05
7 *1253:B1 0.000241431
8 *1255:B1 8.56074e-06
9 *1252:ZN 1.85382e-05
10 *496:103 0.000407705
11 *496:71 0.000625868
12 *496:61 0.000437884
13 *496:57 0.000132157
14 *496:22 0.000527612
15 *496:12 0.000443751
16 *496:8 0.00027991
17 *1253:B1 *1070:A1 1.27666e-06
18 *1253:B1 *1280:A2 1.48912e-05
19 *1253:B1 *825:28 1.2202e-06
20 *1254:B1 *1333:A1 0
21 *1254:B1 *1333:B1 7.72792e-06
22 *1254:B1 *1333:B2 1.3528e-05
23 *1254:B1 *1436:CK 4.38346e-06
24 *1254:B1 *521:20 4.56054e-05
25 *1254:B1 *826:85 0
26 *1254:B1 *842:103 3.23363e-05
27 *1255:B1 *825:28 3.23723e-07
28 *1256:B1 *1283:B1 0
29 *1256:B1 *776:10 3.12109e-05
30 *1256:B1 *842:69 0
31 *1258:B1 *962:A 6.99525e-06
32 *1258:B1 *1413:CK 5.11574e-06
33 *1258:B1 *1437:CK 0
34 *1258:B1 *776:10 4.43868e-06
35 *1258:B1 *842:47 0
36 *1258:B1 *842:69 0
37 *496:8 *521:22 0
38 *496:12 *1412:CK 0
39 *496:12 *502:60 0.000204762
40 *496:22 *947:A 2.86475e-06
41 *496:22 *1130:A2 0
42 *496:22 *1130:B2 7.90853e-06
43 *496:22 *1282:B1 1.86809e-06
44 *496:22 *1284:A2 1.18589e-06
45 *496:22 *1284:B1 1.08355e-05
46 *496:22 *502:60 8.40434e-05
47 *496:22 *502:72 0.000195718
48 *496:22 *825:28 0
49 *496:22 *825:34 0
50 *496:57 *951:A 2.23415e-06
51 *496:57 *1152:B2 2.8283e-05
52 *496:57 *521:22 0
53 *496:57 *679:10 2.09871e-05
54 *496:61 *1152:A1 0
55 *496:71 *1145:A1 0.00011788
56 *496:71 *1152:A2 0
57 *496:71 *1413:CK 2.11815e-06
58 *496:71 *501:39 6.77714e-06
59 *496:71 *501:50 2.9183e-05
60 *496:71 *501:69 3.09682e-06
61 *496:71 *501:80 5.25493e-06
62 *496:71 *502:31 1.55606e-05
63 *496:71 *776:10 0
64 *496:71 *825:55 6.56007e-06
65 *496:71 *825:59 6.52927e-05
66 *496:103 *1333:B2 0
67 *496:103 *1344:B2 1.9887e-05
68 *496:103 *501:80 2.64562e-05
69 *496:103 *502:31 8.40603e-05
70 *496:103 *521:20 4.52614e-06
71 *496:103 *521:22 3.56418e-06
72 *496:103 *686:10 0
73 *496:103 *842:103 1.26998e-05
74 *1253:B2 *1253:B1 1.32323e-05
75 *1254:A1 *1254:B1 2.75346e-06
76 *1254:B2 *1254:B1 1.21774e-06
77 *1255:A1 *1255:B1 8.43215e-07
78 *1255:B2 *1253:B1 2.06516e-05
79 *1255:B2 *496:22 6.32202e-06
80 *1256:B2 *1256:B1 4.78596e-06
81 *1257:A1 *1257:B1 5.52959e-06
82 *1257:A1 *496:22 7.98366e-06
83 *1258:B2 *1258:B1 7.72537e-06
84 *1259:B2 *496:57 3.23723e-07
85 *1259:B2 *496:71 6.32202e-06
86 *1259:B2 *496:103 2.16603e-05
87 *1282:B2 *1253:B1 2.84765e-06
88 *1282:B2 *496:22 7.95441e-05
89 *1284:A1 *496:22 7.19036e-06
90 *1285:B2 *1258:B1 4.88118e-06
91 *1286:B2 *496:57 5.10806e-06
92 *1286:B2 *496:61 2.83434e-06
93 *1347:A1 *496:103 5.9764e-06
94 *1412:D *496:12 0
95 *1412:D *496:57 0
96 *1414:D *496:22 1.71524e-05
97 *1416:D *1255:B1 5.52692e-06
98 *1436:D *496:57 6.44733e-05
99 *1437:D *1258:B1 4.30088e-05
100 *1438:D *1257:B1 3.10376e-06
101 *1438:D *496:22 9.69078e-06
102 *1440:D *1255:B1 7.72537e-06
103 *1441:D *1254:B1 1.04584e-06
104 *1442:D *1253:B1 7.72537e-06
105 *1443:D *1254:B1 4.5641e-05
106 *474:142 *496:22 3.1068e-05
107 *474:150 *496:22 4.87096e-06
108 *476:275 *1258:B1 2.05632e-05
109 *476:285 *1258:B1 4.40711e-06
*RES
1 *1252:ZN *496:8 11.6071 
2 *496:8 *496:12 24.25 
3 *496:12 *496:22 44.8929 
4 *496:22 *1255:B1 11.25 
5 *496:22 *1253:B1 35.9286 
6 *496:12 *1257:B1 8.53572 
7 *496:8 *496:57 20.1429 
8 *496:57 *496:61 6.25 
9 *496:61 *496:71 44.1429 
10 *496:71 *1258:B1 26.1071 
11 *496:71 *1256:B1 35.25 
12 *496:61 *496:103 28.8929 
13 *496:103 *1347:A2 5 
14 *496:103 *1254:B1 43.7143 
15 *496:57 *1259:B1 5 
*END

*D_NET *497 0.00340949
*CONN
*I *1265:A2 I *D OAI22_X1
*I *1268:A2 I *D OAI22_X1
*I *1264:A2 I *D OAI22_X1
*I *1261:A2 I *D NAND2_X1
*I *1262:A2 I *D OAI22_X1
*I *1263:A2 I *D OAI22_X1
*I *1266:A2 I *D OAI22_X1
*I *1346:B2 I *D OAI22_X1
*I *1267:A2 I *D OAI22_X1
*I *1260:ZN O *D OR2_X1
*CAP
1 *1265:A2 7.64717e-05
2 *1268:A2 5.65865e-05
3 *1264:A2 5.51137e-05
4 *1261:A2 0
5 *1262:A2 0
6 *1263:A2 0
7 *1266:A2 0
8 *1346:B2 0
9 *1267:A2 1.50803e-05
10 *1260:ZN 0.000142119
11 *497:65 9.68211e-05
12 *497:58 0.000201696
13 *497:51 0.000230025
14 *497:38 0.00035912
15 *497:27 0.000320397
16 *497:19 0.000270281
17 *497:10 0.000197462
18 *497:8 0.00021859
19 *1264:A2 *953:A 7.66204e-06
20 *1264:A2 *957:A 7.16188e-07
21 *1264:A2 *1261:A1 8.43215e-07
22 *1264:A2 *1264:B1 8.37823e-06
23 *1265:A2 *963:A 0
24 *1265:A2 *1265:B1 1.86809e-06
25 *1265:A2 *1431:CK 2.08416e-06
26 *1265:A2 *842:36 4.95679e-05
27 *1267:A2 *498:53 0
28 *1268:A2 *965:A 2.16072e-07
29 *1268:A2 *1042:A 3.09143e-06
30 *1268:A2 *498:47 1.88316e-05
31 *1268:A2 *498:53 1.68643e-06
32 *497:8 *1265:B1 0
33 *497:19 *963:A 3.83783e-05
34 *497:19 *1042:A 5.05896e-06
35 *497:19 *498:53 0.000256016
36 *497:19 *842:23 0.000167181
37 *497:19 *842:36 2.14856e-06
38 *497:38 *961:A 1.65202e-06
39 *497:38 *498:38 7.8967e-05
40 *497:38 *498:47 7.67361e-06
41 *497:38 *844:10 0
42 *497:51 *961:A 2.39679e-06
43 *497:51 *1433:CK 4.47926e-05
44 *497:51 *498:28 1.18547e-06
45 *497:58 *1433:CK 5.01029e-05
46 *497:58 *498:12 2.16072e-07
47 *497:58 *498:22 3.15692e-05
48 *497:58 *827:238 1.36846e-05
49 *497:65 *1261:A1 1.61774e-05
50 *497:65 *1264:B1 6.48216e-07
51 *497:65 *498:12 5.69557e-06
52 *497:65 *827:238 2.52965e-06
53 *1146:C1 *497:8 0
54 *1153:B *497:27 7.72537e-06
55 *1153:B *497:38 0.000105184
56 *1264:A1 *1264:A2 2.75346e-06
57 *1266:A1 *497:38 2.39679e-06
58 *1266:A1 *497:51 4.32144e-07
59 *1334:C1 *497:27 4.32319e-05
60 *1429:D *497:19 7.03073e-06
61 *1430:D *497:38 1.93517e-05
62 *1432:D *1264:A2 1.11672e-05
63 *1433:D *497:58 2.25089e-06
64 *1434:D *497:65 2.52965e-06
65 *270:10 *1265:A2 1.04526e-05
66 *270:10 *497:8 3.0227e-05
67 *349:8 *497:27 2.4656e-05
68 *448:8 *497:8 0
69 *453:10 *497:27 3.42187e-06
70 *473:64 *497:51 2.39679e-06
71 *473:64 *497:58 4.16642e-05
72 *473:68 *497:51 3.1833e-05
*RES
1 *1260:ZN *497:8 25.8571 
2 *497:8 *497:10 5 
3 *497:10 *1267:A2 6.60714 
4 *497:10 *497:19 29.75 
5 *497:19 *497:27 14.3929 
6 *497:27 *1346:B2 5 
7 *497:27 *497:38 35.9286 
8 *497:38 *1266:A2 5 
9 *497:38 *497:51 9.21429 
10 *497:51 *1263:A2 5 
11 *497:51 *497:58 20.25 
12 *497:58 *1262:A2 5 
13 *497:58 *497:65 4.75 
14 *497:65 *1261:A2 5 
15 *497:65 *1264:A2 11.9286 
16 *497:19 *1268:A2 11.1786 
17 *497:8 *1265:A2 18.7143 
*END

*D_NET *498 0.00299489
*CONN
*I *1264:B1 I *D OAI22_X1
*I *1262:B1 I *D OAI22_X1
*I *1263:B1 I *D OAI22_X1
*I *1266:B1 I *D OAI22_X1
*I *1346:A2 I *D OAI22_X1
*I *1267:B1 I *D OAI22_X1
*I *1265:B1 I *D OAI22_X1
*I *1268:B1 I *D OAI22_X1
*I *1261:ZN O *D NAND2_X1
*CAP
1 *1264:B1 5.32325e-05
2 *1262:B1 0
3 *1263:B1 0
4 *1266:B1 0
5 *1346:A2 0
6 *1267:B1 0
7 *1265:B1 9.41604e-05
8 *1268:B1 0
9 *1261:ZN 2.18274e-05
10 *498:53 0.000337931
11 *498:47 0.000289889
12 *498:38 0.000316373
13 *498:28 0.000356819
14 *498:22 0.000280718
15 *498:12 0.000228074
16 *498:10 0.00010898
17 *1265:B1 *842:36 8.43215e-07
18 *498:10 *827:230 0
19 *498:38 *961:A 2.80727e-05
20 *498:38 *965:A 0
21 *498:38 *1428:CK 0
22 *498:38 *1430:CK 0
23 *498:38 *1433:CK 8.33602e-06
24 *498:53 *842:8 0
25 *1071:C1 *498:12 1.90208e-06
26 *1071:C1 *498:22 1.98272e-06
27 *1116:C1 *1265:B1 2.54776e-05
28 *1131:A *498:38 0
29 *1131:B *498:28 0
30 *1146:B *498:53 0
31 *1146:C1 *498:53 3.85541e-05
32 *1153:B *498:53 0
33 *1264:A2 *1264:B1 8.37823e-06
34 *1265:A2 *1265:B1 1.86809e-06
35 *1266:A1 *498:28 3.09411e-06
36 *1266:A1 *498:38 8.43215e-07
37 *1267:A2 *498:53 0
38 *1267:B2 *1265:B1 2.39679e-06
39 *1267:B2 *498:53 1.0303e-05
40 *1268:A2 *498:47 1.88316e-05
41 *1268:A2 *498:53 1.68643e-06
42 *1428:D *498:38 9.30104e-05
43 *1429:D *498:53 5.09795e-05
44 *1430:D *498:38 7.72792e-06
45 *1432:D *1264:B1 9.65816e-06
46 *1433:D *498:22 4.00059e-05
47 *1434:D *1264:B1 2.4699e-05
48 *1434:D *498:10 7.11905e-07
49 *1434:D *498:12 2.06509e-05
50 *1435:D *498:53 1.81442e-05
51 *266:8 *1265:B1 6.32202e-06
52 *268:8 *498:38 2.41337e-05
53 *392:10 *498:22 4.32144e-07
54 *392:10 *498:28 8.17504e-06
55 *405:10 *498:10 5.54369e-05
56 *473:64 *498:22 1.03315e-06
57 *473:68 *498:22 8.43215e-07
58 *473:68 *498:28 1.03759e-05
59 *497:8 *1265:B1 0
60 *497:19 *498:53 0.000256016
61 *497:38 *498:38 7.8967e-05
62 *497:38 *498:47 7.67361e-06
63 *497:51 *498:28 1.18547e-06
64 *497:58 *498:12 2.16072e-07
65 *497:58 *498:22 3.15692e-05
66 *497:65 *1264:B1 6.48216e-07
67 *497:65 *498:12 5.69557e-06
*RES
1 *1261:ZN *498:10 17.9643 
2 *498:10 *498:12 4.25 
3 *498:12 *498:22 22.6072 
4 *498:22 *498:28 8.96429 
5 *498:28 *498:38 44.1429 
6 *498:38 *1268:B1 5 
7 *498:38 *498:47 5.67857 
8 *498:47 *498:53 33.4643 
9 *498:53 *1265:B1 25.3214 
10 *498:53 *1267:B1 5 
11 *498:47 *1346:A2 5 
12 *498:28 *1266:B1 5 
13 *498:22 *1263:B1 5 
14 *498:12 *1262:B1 5 
15 *498:10 *1264:B1 12.1786 
*END

*D_NET *499 0.00340762
*CONN
*I *1274:A2 I *D OAI22_X1
*I *1272:A2 I *D OAI22_X1
*I *1273:A2 I *D OAI22_X1
*I *1271:A2 I *D OAI22_X1
*I *1270:A2 I *D NAND2_X1
*I *1275:A2 I *D OAI22_X1
*I *1277:A2 I *D OAI22_X1
*I *1345:B2 I *D OAI22_X1
*I *1276:A2 I *D OAI22_X1
*I *1269:ZN O *D OR2_X1
*CAP
1 *1274:A2 2.23509e-05
2 *1272:A2 2.48395e-05
3 *1273:A2 4.09961e-05
4 *1271:A2 0
5 *1270:A2 0
6 *1275:A2 0
7 *1277:A2 0
8 *1345:B2 0
9 *1276:A2 0
10 *1269:ZN 0.000154614
11 *499:97 0.000123606
12 *499:82 0.000236967
13 *499:76 0.000246989
14 *499:61 0.000293612
15 *499:46 0.000302053
16 *499:31 0.000242587
17 *499:16 0.00025234
18 *499:14 0.000262951
19 *1272:A2 *843:8 1.19839e-05
20 *1273:A2 *1273:B1 8.42794e-06
21 *1273:A2 *843:96 4.88546e-05
22 *1273:A2 *843:126 7.19036e-06
23 *499:14 *1274:B1 1.00551e-05
24 *499:16 *948:A 2.16072e-07
25 *499:16 *1274:B1 1.97997e-05
26 *499:16 *500:41 2.16072e-07
27 *499:31 *948:A 1.40196e-06
28 *499:31 *1345:A2 6.38328e-07
29 *499:31 *500:41 0.000159087
30 *499:31 *672:8 0
31 *499:46 *1277:B1 2.83077e-06
32 *499:46 *1345:A2 1.78037e-05
33 *499:46 *500:41 5.50692e-06
34 *499:46 *522:8 6.57477e-06
35 *499:61 *950:A 2.55787e-06
36 *499:61 *1345:A2 0
37 *499:61 *1420:CK 0.000182236
38 *499:61 *1671:A 5.90677e-06
39 *499:61 *500:31 7.16188e-07
40 *499:61 *500:33 3.7463e-05
41 *499:61 *843:17 1.03048e-06
42 *499:61 *843:19 1.3145e-05
43 *499:76 *500:31 1.08482e-05
44 *499:82 *1272:B1 3.09143e-06
45 *499:82 *500:12 0.000118588
46 *499:82 *500:31 1.80284e-05
47 *499:82 *843:96 0
48 *499:97 *1273:B1 2.16072e-07
49 *499:97 *500:91 5.65801e-06
50 *499:97 *843:96 7.19036e-06
51 *1271:B2 *499:97 5.54348e-05
52 *1272:A1 *1272:A2 7.19036e-06
53 *1272:A1 *499:82 3.23723e-07
54 *1274:B2 *499:14 2.94435e-05
55 *1275:A1 *499:61 3.22054e-05
56 *1277:B2 *499:46 0
57 *1277:B2 *499:61 3.51536e-06
58 *1345:A1 *499:46 2.99551e-05
59 *1420:D *499:61 1.95766e-05
60 *1421:D *499:31 5.34141e-05
61 *1422:D *499:76 1.88906e-05
62 *1423:D *499:14 0
63 *1425:D *1272:A2 1.68643e-06
64 *1425:D *499:61 5.23214e-05
65 *1425:D *499:76 9.96576e-05
66 *1425:D *499:82 6.82202e-07
67 *1426:D *499:97 3.01743e-06
68 *1427:D *499:31 4.51285e-05
69 *378:10 *499:97 0
70 *392:12 *1272:A2 2.14591e-06
71 *406:10 *499:97 0
72 *448:8 *499:14 0
73 *473:49 *1272:A2 2.94134e-05
74 *473:64 *1272:A2 1.2453e-05
*RES
1 *1269:ZN *499:14 30.6786 
2 *499:14 *499:16 9.25 
3 *499:16 *1276:A2 5 
4 *499:16 *499:31 23.9643 
5 *499:31 *1345:B2 5 
6 *499:31 *499:46 18.6429 
7 *499:46 *1277:A2 5 
8 *499:46 *499:61 32.6072 
9 *499:61 *1275:A2 5 
10 *499:61 *499:76 11.1429 
11 *499:76 *499:82 19.2857 
12 *499:82 *1270:A2 5 
13 *499:82 *499:97 19.3214 
14 *499:97 *1271:A2 5 
15 *499:97 *1273:A2 10.5 
16 *499:76 *1272:A2 18.5357 
17 *499:14 *1274:A2 7.85714 
*END

*D_NET *500 0.00264251
*CONN
*I *1273:B1 I *D OAI22_X1
*I *1271:B1 I *D OAI22_X1
*I *1275:B1 I *D OAI22_X1
*I *1277:B1 I *D OAI22_X1
*I *1345:A2 I *D OAI22_X1
*I *1276:B1 I *D OAI22_X1
*I *1274:B1 I *D OAI22_X1
*I *1272:B1 I *D OAI22_X1
*I *1270:ZN O *D NAND2_X1
*CAP
1 *1273:B1 5.1491e-05
2 *1271:B1 0
3 *1275:B1 0
4 *1277:B1 5.0522e-06
5 *1345:A2 3.80415e-05
6 *1276:B1 0
7 *1274:B1 0.000123151
8 *1272:B1 7.01751e-06
9 *1270:ZN 0.000156759
10 *500:91 9.19845e-05
11 *500:59 5.66555e-05
12 *500:41 0.00033571
13 *500:33 0.000477013
14 *500:31 0.000369996
15 *500:12 0.000242386
16 *1274:B1 *944:A 0
17 *500:12 *843:8 6.07323e-06
18 *500:12 *843:96 0
19 *500:33 *1671:A 2.83922e-05
20 *500:91 *843:96 3.51536e-06
21 *1272:A1 *1272:B1 8.43215e-07
22 *1272:B2 *500:31 1.72405e-05
23 *1273:A2 *1273:B1 8.42794e-06
24 *1275:A1 *500:33 1.28516e-05
25 *1275:B2 *500:33 8.62447e-05
26 *1420:D *1345:A2 0
27 *1420:D *500:33 2.05797e-05
28 *1420:D *500:59 7.29164e-07
29 *1421:D *500:41 1.61689e-05
30 *1422:D *500:31 4.82322e-05
31 *1425:D *500:33 3.65322e-06
32 *1426:D *1273:B1 1.48692e-05
33 *1427:D *1345:A2 3.19164e-07
34 *1427:D *500:59 0
35 *473:49 *500:31 8.56923e-06
36 *499:14 *1274:B1 1.00551e-05
37 *499:16 *1274:B1 1.97997e-05
38 *499:16 *500:41 2.16072e-07
39 *499:31 *1345:A2 6.38328e-07
40 *499:31 *500:41 0.000159087
41 *499:46 *1277:B1 2.83077e-06
42 *499:46 *1345:A2 1.78037e-05
43 *499:46 *500:41 5.50692e-06
44 *499:61 *1345:A2 0
45 *499:61 *500:31 7.16188e-07
46 *499:61 *500:33 3.7463e-05
47 *499:76 *500:31 1.08482e-05
48 *499:82 *1272:B1 3.09143e-06
49 *499:82 *500:12 0.000118588
50 *499:82 *500:31 1.80284e-05
51 *499:97 *1273:B1 2.16072e-07
52 *499:97 *500:91 5.65801e-06
*RES
1 *1270:ZN *500:12 20.3571 
2 *500:12 *1272:B1 5.75 
3 *500:12 *500:31 24.2143 
4 *500:31 *500:33 31.25 
5 *500:33 *500:41 26.5357 
6 *500:41 *1274:B1 19.1071 
7 *500:41 *1276:B1 5 
8 *500:33 *500:59 1.60714 
9 *500:59 *1345:A2 10.6071 
10 *500:59 *1277:B1 6.25 
11 *500:31 *1275:B1 5 
12 *1270:ZN *500:91 9.17857 
13 *500:91 *1271:B1 5 
14 *500:91 *1273:B1 10.5 
*END

*D_NET *501 0.00691794
*CONN
*I *1344:B2 I *D OAI22_X1
*I *1281:A2 I *D OAI22_X1
*I *1280:A2 I *D OAI22_X1
*I *1282:A2 I *D OAI22_X1
*I *1284:A2 I *D OAI22_X1
*I *1286:A2 I *D OAI22_X1
*I *1279:A2 I *D NAND2_X1
*I *1285:A2 I *D OAI22_X1
*I *1283:A2 I *D OAI22_X1
*I *1278:ZN O *D OR2_X1
*CAP
1 *1344:B2 9.66121e-05
2 *1281:A2 3.35877e-05
3 *1280:A2 9.74105e-05
4 *1282:A2 0.0001345
5 *1284:A2 0.000138983
6 *1286:A2 1.01584e-05
7 *1279:A2 4.79478e-05
8 *1285:A2 0
9 *1283:A2 0.00018691
10 *1278:ZN 0.000334287
11 *501:103 0.000374105
12 *501:99 0.000218925
13 *501:86 0.000526985
14 *501:80 0.000510179
15 *501:69 0.000115282
16 *501:50 0.000213145
17 *501:39 0.000337475
18 *501:12 0.000455374
19 *501:8 0.000394057
20 *1279:A2 *1279:A1 1.21774e-06
21 *1279:A2 *1286:B1 8.25592e-06
22 *1279:A2 *502:12 1.14339e-05
23 *1279:A2 *502:16 0
24 *1279:A2 *502:31 3.69646e-06
25 *1279:A2 *521:22 8.57354e-06
26 *1280:A2 *1070:A1 0
27 *1280:A2 *1280:B1 8.56004e-05
28 *1281:A2 *941:A 1.08036e-06
29 *1282:A2 *1282:B1 1.18232e-06
30 *1282:A2 *502:85 0.000391012
31 *1282:A2 *685:26 4.24381e-05
32 *1282:A2 *825:28 3.09411e-06
33 *1283:A2 *945:A 2.16072e-07
34 *1283:A2 *1283:B1 6.48216e-07
35 *1283:A2 *842:47 0.000106626
36 *1283:A2 *842:58 1.2453e-05
37 *1283:A2 *842:69 0.000437953
38 *1284:A2 *947:A 4.32144e-07
39 *1284:A2 *777:12 2.6099e-05
40 *1286:A2 *1286:B1 1.18232e-06
41 *1344:B2 *1283:B1 6.38328e-07
42 *1344:B2 *1333:B2 1.36734e-05
43 *1344:B2 *502:31 1.91498e-06
44 *1344:B2 *521:22 0.000120658
45 *501:39 *1145:A1 9.36841e-06
46 *501:39 *1145:A2 1.70233e-05
47 *501:39 *1145:B2 1.75851e-05
48 *501:39 *1285:B1 7.16188e-07
49 *501:39 *680:10 6.50827e-06
50 *501:50 *1152:B2 5.38562e-05
51 *501:50 *1285:B1 2.36951e-05
52 *501:69 *1152:B2 2.11411e-05
53 *501:69 *1286:B1 1.06831e-05
54 *501:69 *502:31 0
55 *501:69 *521:22 6.64259e-05
56 *501:80 *521:22 0.000259647
57 *501:86 *1152:A1 0
58 *501:86 *1281:B1 0
59 *501:86 *775:10 7.87811e-06
60 *501:103 *1070:B1 1.27757e-05
61 *501:103 *1280:B1 7.19036e-06
62 *501:103 *1281:B1 0.00019164
63 *1253:B1 *1280:A2 1.48912e-05
64 *1253:B2 *1280:A2 2.8085e-05
65 *1255:A1 *1282:A2 2.39679e-06
66 *1257:A1 *1284:A2 3.17023e-05
67 *1258:B2 *1283:A2 0
68 *1259:B2 *501:80 1.46241e-05
69 *1280:B2 *1280:A2 3.82566e-06
70 *1281:A1 *1281:A2 7.19036e-06
71 *1281:B2 *1281:A2 1.21603e-05
72 *1281:B2 *501:99 1.88334e-06
73 *1283:B2 *1283:A2 5.39404e-05
74 *1284:A1 *1284:A2 7.19036e-06
75 *1284:B2 *1284:A2 7.68427e-06
76 *1285:B2 *501:39 0
77 *1286:B2 *1286:A2 1.87392e-05
78 *1286:B2 *501:50 7.94204e-06
79 *1286:B2 *501:69 7.72792e-06
80 *1412:D *1286:A2 5.52692e-06
81 *1412:D *501:69 1.86809e-06
82 *1413:D *501:39 3.31917e-05
83 *1442:D *1280:A2 2.70438e-05
84 *419:8 *501:8 0
85 *420:10 *501:8 3.86564e-05
86 *447:10 *501:39 4.30278e-06
87 *453:10 *1279:A2 2.59222e-06
88 *473:70 *1281:A2 7.94852e-06
89 *473:70 *1284:A2 7.30625e-05
90 *473:70 *501:99 2.39721e-05
91 *473:74 *1281:A2 7.19036e-06
92 *473:89 *1281:A2 1.66988e-05
93 *474:152 *501:12 0
94 *474:152 *501:39 0
95 *476:275 *501:12 3.23826e-05
96 *476:275 *501:39 8.20698e-06
97 *476:285 *1279:A2 4.87937e-06
98 *476:285 *501:39 9.81927e-05
99 *476:289 *1279:A2 8.26038e-06
100 *496:22 *1284:A2 1.18589e-06
101 *496:71 *501:39 6.77714e-06
102 *496:71 *501:50 2.9183e-05
103 *496:71 *501:69 3.09682e-06
104 *496:71 *501:80 5.25493e-06
105 *496:103 *1344:B2 1.9887e-05
106 *496:103 *501:80 2.64562e-05
*RES
1 *1278:ZN *501:8 48.25 
2 *501:8 *501:12 12.25 
3 *501:12 *1283:A2 45.1786 
4 *501:12 *501:39 36.1786 
5 *501:39 *1285:A2 5 
6 *501:39 *501:50 16.4286 
7 *501:50 *1279:A2 21.4286 
8 *501:50 *501:69 10.8929 
9 *501:69 *1286:A2 11.75 
10 *501:69 *501:80 13.8214 
11 *501:80 *501:86 44.25 
12 *501:86 *1284:A2 29.1429 
13 *501:86 *501:99 5.67857 
14 *501:99 *501:103 23.75 
15 *501:103 *1282:A2 37.0357 
16 *501:103 *1280:A2 28.2857 
17 *501:99 *1281:A2 14.2143 
18 *501:80 *1344:B2 23.6071 
*END

*D_NET *502 0.00512706
*CONN
*I *1284:B1 I *D OAI22_X1
*I *1280:B1 I *D OAI22_X1
*I *1281:B1 I *D OAI22_X1
*I *1282:B1 I *D OAI22_X1
*I *1286:B1 I *D OAI22_X1
*I *1344:A2 I *D OAI22_X1
*I *1283:B1 I *D OAI22_X1
*I *1285:B1 I *D OAI22_X1
*I *1279:ZN O *D NAND2_X1
*CAP
1 *1284:B1 2.17627e-06
2 *1280:B1 7.62063e-05
3 *1281:B1 0.000155369
4 *1282:B1 1.16975e-05
5 *1286:B1 2.8301e-05
6 *1344:A2 0
7 *1283:B1 0.000335403
8 *1285:B1 9.953e-05
9 *1279:ZN 1.41982e-05
10 *502:85 0.000374889
11 *502:72 0.000308136
12 *502:60 0.000361697
13 *502:31 0.000551307
14 *502:16 0.000343146
15 *502:12 7.45237e-05
16 *502:6 0.000239104
17 *1280:B1 *685:26 1.87637e-06
18 *1281:B1 *1085:B1 0
19 *1281:B1 *1085:B2 7.02617e-06
20 *1281:B1 *825:223 2.94435e-05
21 *1282:B1 *825:28 0
22 *1283:B1 *1040:A 2.16072e-07
23 *1283:B1 *842:90 3.19164e-06
24 *1283:B1 *842:103 0
25 *1285:B1 *1152:B2 1.6984e-05
26 *1286:B1 *521:22 4.16195e-06
27 *502:6 *1279:A1 2.40498e-06
28 *502:12 *1152:B2 2.61827e-06
29 *502:12 *1279:A1 4.08249e-06
30 *502:12 *521:22 5.86754e-06
31 *502:16 *1152:B2 3.80576e-05
32 *502:16 *1279:A1 1.27666e-06
33 *502:31 *1040:A 2.08416e-06
34 *502:31 *1152:A1 4.88675e-06
35 *502:31 *1333:B2 2.0424e-05
36 *502:31 *842:103 0
37 *502:60 *1152:B2 9.69078e-06
38 *502:60 *1279:A1 7.6145e-06
39 *502:60 *827:248 0.000102
40 *1253:B2 *1280:B1 4.47939e-06
41 *1255:A1 *1282:B1 8.43215e-07
42 *1256:B1 *1283:B1 0
43 *1279:A2 *1286:B1 8.25592e-06
44 *1279:A2 *502:12 1.14339e-05
45 *1279:A2 *502:16 0
46 *1279:A2 *502:31 3.69646e-06
47 *1280:A2 *1280:B1 8.56004e-05
48 *1281:A1 *1281:B1 3.09411e-06
49 *1282:A2 *1282:B1 1.18232e-06
50 *1282:A2 *502:85 0.000391012
51 *1282:B2 *1282:B1 8.43215e-07
52 *1283:A2 *1283:B1 6.48216e-07
53 *1285:B2 *1285:B1 1.21774e-06
54 *1286:A2 *1286:B1 1.18232e-06
55 *1286:B2 *1286:B1 2.75346e-06
56 *1344:B2 *1283:B1 6.38328e-07
57 *1344:B2 *502:31 1.91498e-06
58 *1412:D *1286:B1 2.39679e-06
59 *1412:D *502:60 0
60 *1417:D *1281:B1 4.37111e-05
61 *1419:D *1283:B1 2.54524e-05
62 *1439:D *1283:B1 0
63 *377:16 *1280:B1 9.35666e-05
64 *453:10 *502:31 0.000128993
65 *473:74 *1281:B1 2.90685e-06
66 *474:150 *502:72 0.000180583
67 *474:222 *502:72 2.00032e-05
68 *474:222 *502:85 1.14365e-05
69 *476:285 *1285:B1 2.45847e-05
70 *476:289 *502:16 0
71 *476:289 *502:60 0
72 *476:289 *502:72 4.26314e-06
73 *496:12 *502:60 0.000204762
74 *496:22 *1282:B1 1.86809e-06
75 *496:22 *1284:B1 1.08355e-05
76 *496:22 *502:60 8.40434e-05
77 *496:22 *502:72 0.000195718
78 *496:71 *502:31 1.55606e-05
79 *496:103 *502:31 8.40603e-05
80 *501:39 *1285:B1 7.16188e-07
81 *501:50 *1285:B1 2.36951e-05
82 *501:69 *1286:B1 1.06831e-05
83 *501:69 *502:31 0
84 *501:86 *1281:B1 0
85 *501:103 *1280:B1 7.19036e-06
86 *501:103 *1281:B1 0.00019164
*RES
1 *1279:ZN *502:6 6.60714 
2 *502:6 *502:12 7.85714 
3 *502:12 *502:16 8.75 
4 *502:16 *1285:B1 17.75 
5 *502:16 *502:31 40.1429 
6 *502:31 *1283:B1 39.1429 
7 *502:31 *1344:A2 5 
8 *502:12 *1286:B1 13.7143 
9 *502:6 *502:60 32.25 
10 *502:60 *502:72 31 
11 *502:72 *1282:B1 11.25 
12 *502:72 *502:85 27.6429 
13 *502:85 *1281:B1 36.1072 
14 *502:85 *1280:B1 17.4286 
15 *502:60 *1284:B1 6 
*END

*D_NET *505 0.00453603
*CONN
*I *1292:B1 I *D OAI22_X1
*I *1293:B1 I *D OAI22_X1
*I *1291:B1 I *D OAI22_X1
*I *1343:A2 I *D OAI22_X1
*I *1296:B1 I *D OAI22_X1
*I *1290:B1 I *D OAI22_X1
*I *1295:B1 I *D OAI22_X1
*I *1294:B1 I *D OAI22_X1
*I *1289:ZN O *D NAND2_X2
*CAP
1 *1292:B1 2.64387e-05
2 *1293:B1 0.000117615
3 *1291:B1 0
4 *1343:A2 0.000127278
5 *1296:B1 4.80063e-05
6 *1290:B1 0.000210851
7 *1295:B1 0
8 *1294:B1 5.17633e-05
9 *1289:ZN 0.000190354
10 *505:83 0.000209899
11 *505:70 0.000463972
12 *505:57 0.000356284
13 *505:28 0.000164207
14 *505:22 0.000380392
15 *505:20 0.00028488
16 *1292:B1 *834:40 1.70588e-05
17 *1293:B1 *1409:CK 0
18 *1293:B1 *826:138 2.33807e-05
19 *1293:B1 *826:142 1.0537e-05
20 *1294:B1 *1137:A2 1.57722e-05
21 *1296:B1 *834:65 6.06867e-06
22 *1343:A2 *1327:A2 0
23 *1343:A2 *694:12 4.4596e-05
24 *1343:A2 *825:111 0
25 *1343:A2 *826:142 9.57492e-07
26 *505:20 *915:A 7.66675e-07
27 *505:20 *511:18 9.19429e-05
28 *505:20 *834:40 3.03843e-05
29 *505:22 *1319:B1 1.72426e-05
30 *505:22 *511:22 0.000155146
31 *505:28 *511:22 0.000311183
32 *505:57 *1319:B1 3.80896e-05
33 *505:70 *1411:CK 0
34 *505:70 *826:155 0.000522509
35 *505:70 *834:59 9.0475e-06
36 *505:70 *834:108 1.81694e-05
37 *505:83 *826:142 2.0121e-05
38 *1290:B2 *1290:B1 2.75346e-06
39 *1291:A1 *1293:B1 6.74733e-06
40 *1291:A1 *505:83 8.43215e-07
41 *1292:B2 *1292:B1 3.46965e-06
42 *1292:B2 *505:20 2.38434e-05
43 *1294:B2 *1294:B1 8.43215e-07
44 *1295:B2 *1294:B1 2.39679e-06
45 *1295:B2 *505:28 5.33113e-06
46 *1296:B2 *1296:B1 2.75346e-06
47 *1319:A1 *505:57 5.05238e-06
48 *1319:B2 *505:20 3.8103e-06
49 *1343:A1 *1343:A2 1.34605e-05
50 *1384:D *505:20 9.22996e-05
51 *1384:D *505:57 1.47752e-05
52 *1408:D *1292:B1 1.0276e-05
53 *1408:D *505:20 0.000134504
54 *1409:D *1293:B1 9.15862e-05
55 *1411:D *1343:A2 4.25617e-05
56 *399:18 *1292:B1 0
57 *459:18 *505:57 9.01193e-05
58 *459:18 *505:70 2.36926e-05
*RES
1 *1289:ZN *505:20 45.6072 
2 *505:20 *505:22 9.07143 
3 *505:22 *505:28 22.2857 
4 *505:28 *1294:B1 10.6786 
5 *505:28 *1295:B1 5 
6 *505:22 *1290:B1 30.75 
7 *505:20 *505:57 9.39286 
8 *505:57 *1296:B1 14.75 
9 *505:57 *505:70 41.2143 
10 *505:70 *1343:A2 20.9286 
11 *505:70 *505:83 10.25 
12 *505:83 *1291:B1 5 
13 *505:83 *1293:B1 20.75 
14 *1289:ZN *1292:B1 13.25 
*END

*D_NET *509 0.00527117
*CONN
*I *1314:B1 I *D OAI22_X1
*I *1308:B1 I *D OAI22_X1
*I *1312:B1 I *D OAI22_X1
*I *1313:B1 I *D OAI22_X1
*I *1311:B1 I *D OAI22_X1
*I *1309:B1 I *D OAI22_X1
*I *1341:A2 I *D OAI22_X1
*I *1310:B1 I *D OAI22_X1
*I *1307:ZN O *D NAND2_X1
*CAP
1 *1314:B1 0
2 *1308:B1 0
3 *1312:B1 0
4 *1313:B1 9.48202e-06
5 *1311:B1 0.000153001
6 *1309:B1 0
7 *1341:A2 0.000216856
8 *1310:B1 4.67041e-05
9 *1307:ZN 1.66043e-05
10 *509:110 0.000383431
11 *509:96 0.00045542
12 *509:88 0.000117432
13 *509:86 0.000390279
14 *509:78 0.000616767
15 *509:37 0.000248398
16 *509:35 0.000528408
17 *509:18 0.000548819
18 *509:10 0.000437302
19 *1310:B1 *836:122 5.98684e-05
20 *1311:B1 *916:A 0
21 *1311:B1 *1391:CK 0
22 *1341:A2 *1395:CK 0
23 *1341:A2 *836:81 5.62244e-05
24 *1341:A2 *836:89 0
25 *509:18 *1388:CK 2.66684e-05
26 *509:18 *1396:CK 6.07779e-06
27 *509:18 *836:38 5.34723e-05
28 *509:18 *836:122 8.90111e-05
29 *509:35 *927:A 4.32319e-05
30 *509:35 *1399:CK 1.25431e-05
31 *509:37 *836:89 0
32 *509:78 *922:A 1.53342e-05
33 *509:86 *925:A 7.99601e-05
34 *509:88 *1055:A1 0
35 *509:96 *1055:A1 0
36 *509:110 *1648:A 1.27666e-06
37 *1095:A *509:18 1.86514e-05
38 *1095:C1 *1310:B1 1.1194e-05
39 *1159:A *509:86 1.10597e-05
40 *1300:B2 *509:35 7.05898e-06
41 *1308:B2 *509:86 1.16012e-05
42 *1308:B2 *509:88 3.85541e-05
43 *1308:B2 *509:96 2.16072e-07
44 *1309:B2 *1341:A2 2.35379e-05
45 *1311:B2 *1311:B1 2.75346e-06
46 *1312:A1 *509:96 0
47 *1312:B2 *509:96 2.39679e-06
48 *1312:B2 *509:110 2.00838e-05
49 *1313:B2 *1313:B1 8.68997e-06
50 *1388:D *509:78 0
51 *1388:D *509:86 0
52 *1389:D *509:110 2.48772e-06
53 *1390:D *509:96 2.39679e-06
54 *1390:D *509:110 1.53244e-05
55 *1391:D *1311:B1 0
56 *1392:D *1310:B1 3.88456e-06
57 *1393:D *1311:B1 0
58 *1393:D *509:37 0
59 *1394:D *509:88 3.83783e-05
60 *1395:D *1341:A2 4.4596e-05
61 *1396:D *509:10 9.57492e-07
62 *1396:D *509:18 0
63 *219:8 *1341:A2 8.92676e-06
64 *385:10 *1341:A2 0
65 *399:18 *509:78 3.38735e-05
66 *413:8 *1311:B1 3.48071e-05
67 *413:8 *1341:A2 3.51536e-06
68 *413:8 *509:37 4.15369e-06
69 *473:116 *509:35 0
70 *474:170 *1310:B1 6.84974e-05
71 *474:170 *509:18 2.89039e-05
72 *474:170 *509:35 1.72426e-05
73 *476:208 *509:86 7.52345e-05
74 *476:273 *509:10 3.07768e-05
75 *476:273 *509:78 8.88417e-05
*RES
1 *1307:ZN *509:10 12.3571 
2 *509:10 *509:18 31.3572 
3 *509:18 *1310:B1 18.4286 
4 *509:18 *509:35 42.5714 
5 *509:35 *509:37 3.25 
6 *509:37 *1341:A2 39.3929 
7 *509:37 *1309:B1 5 
8 *509:35 *1311:B1 22.25 
9 *509:10 *509:78 39.5 
10 *509:78 *509:86 45.6072 
11 *509:86 *509:88 5.25 
12 *509:88 *509:96 17.7143 
13 *509:96 *509:110 49.1429 
14 *509:110 *1313:B1 6.25 
15 *509:96 *1312:B1 5 
16 *509:88 *1308:B1 5 
17 *509:78 *1314:B1 10 
*END

*D_NET *511 0.00521205
*CONN
*I *1320:B1 I *D OAI22_X1
*I *1318:B1 I *D OAI22_X1
*I *1340:A2 I *D OAI22_X1
*I *1323:B1 I *D OAI22_X1
*I *1319:B1 I *D OAI22_X1
*I *1322:B1 I *D OAI22_X1
*I *1321:B1 I *D OAI22_X1
*I *1317:B1 I *D OAI22_X1
*I *1316:ZN O *D NAND2_X1
*CAP
1 *1320:B1 0.000154817
2 *1318:B1 0
3 *1340:A2 0.000126884
4 *1323:B1 0.000185751
5 *1319:B1 2.11225e-05
6 *1322:B1 0.000280929
7 *1321:B1 7.26033e-06
8 *1317:B1 6.32241e-05
9 *1316:ZN 0.000138298
10 *511:104 0.00032915
11 *511:72 0.000506956
12 *511:68 0.000442742
13 *511:26 0.00029524
14 *511:22 0.000759356
15 *511:18 0.000442542
16 *511:10 0.000380135
17 *1317:B1 *833:36 2.23871e-06
18 *1320:B1 *913:A 0
19 *1320:B1 *1383:CK 0
20 *1320:B1 *834:143 0
21 *1321:B1 *833:36 0
22 *1322:B1 *1646:A 0
23 *1322:B1 *828:262 0
24 *1322:B1 *833:8 0
25 *1322:B1 *833:18 0
26 *1323:B1 *1158:A1 0
27 *1323:B1 *1158:A2 1.28122e-06
28 *1323:B1 *1158:B2 0
29 *1323:B1 *687:14 7.87454e-06
30 *1323:B1 *825:111 0
31 *1340:A2 *687:14 2.92639e-05
32 *511:10 *1094:A1 3.84531e-05
33 *511:10 *1094:B2 0
34 *511:10 *715:10 1.42898e-05
35 *511:10 *834:40 0
36 *511:10 *834:46 9.62051e-07
37 *511:22 *1137:A2 0
38 *511:72 *691:10 0
39 *511:72 *834:65 1.75631e-05
40 *511:104 *913:A 0
41 *511:104 *834:130 0
42 *511:104 *834:143 0
43 *1060:B *1322:B1 0
44 *1296:B2 *1323:B1 0
45 *1296:B2 *511:72 0
46 *1318:B2 *511:104 2.42487e-05
47 *1319:B2 *511:18 4.32144e-07
48 *1320:B2 *1320:B1 7.96507e-06
49 *1321:A1 *511:26 0.000215774
50 *1321:B2 *1321:B1 2.39679e-06
51 *1322:B2 *1322:B1 1.72426e-05
52 *1323:B2 *1323:B1 0
53 *1340:A1 *1340:A2 1.72405e-05
54 *1381:D *1322:B1 4.4245e-05
55 *1382:D *1317:B1 0
56 *1383:D *1320:B1 1.04584e-06
57 *1385:D *511:104 7.03073e-06
58 *366:14 *1322:B1 0
59 *366:14 *511:26 0
60 *399:12 *511:10 1.42171e-05
61 *459:18 *1323:B1 2.77917e-07
62 *476:189 *511:22 0
63 *476:202 *511:22 0
64 *505:20 *511:18 9.19429e-05
65 *505:22 *1319:B1 1.72426e-05
66 *505:22 *511:22 0.000155146
67 *505:28 *511:22 0.000311183
68 *505:57 *1319:B1 3.80896e-05
*RES
1 *1316:ZN *511:10 25.6786 
2 *511:10 *511:18 26.9643 
3 *511:18 *511:22 37.8214 
4 *511:22 *511:26 28.0357 
5 *511:26 *1317:B1 11.6071 
6 *511:26 *1321:B1 6.25 
7 *511:22 *1322:B1 45.0714 
8 *511:18 *1319:B1 12.9643 
9 *511:10 *511:68 7.03572 
10 *511:68 *511:72 24.75 
11 *511:72 *1323:B1 33.5714 
12 *511:72 *1340:A2 29.5714 
13 *511:68 *511:104 24.2143 
14 *511:104 *1318:B1 5 
15 *511:104 *1320:B1 20.6786 
*END

*D_NET *512 0.000241267
*CONN
*I *1326:A I *D OAI211_X1
*I *1324:ZN O *D NAND3_X1
*CAP
1 *1326:A 6.58015e-05
2 *1324:ZN 6.58015e-05
3 *1326:A *513:16 4.40012e-05
4 *1326:C1 *1326:A 5.11665e-05
5 *1350:A1 *1326:A 3.75953e-06
6 *353:8 *1326:A 1.07364e-05
*RES
1 *1324:ZN *1326:A 29.5357 
*END

*D_NET *513 0.00115475
*CONN
*I *1326:B I *D OAI211_X1
*I *1325:ZN O *D AOI22_X1
*CAP
1 *1326:B 0
2 *1325:ZN 9.20512e-05
3 *513:16 0.000361037
4 *513:8 0.000453089
5 *513:16 *1046:A 2.11673e-05
6 *513:16 *1324:A3 2.94455e-05
7 *1326:A *513:16 4.40012e-05
8 *1349:A1 *513:16 7.54367e-07
9 *1349:A2 *513:16 7.19506e-06
10 *1350:A1 *513:16 5.08499e-06
11 *1467:D *513:16 5.10087e-06
12 *353:8 *513:16 5.73366e-06
13 *365:67 *513:8 0.000130089
*RES
1 *1325:ZN *513:8 22.25 
2 *513:8 *513:16 46.6786 
3 *513:16 *1326:B 5 
*END

*D_NET *514 0.000944203
*CONN
*I *1335:C2 I *D AOI222_X1
*I *1326:ZN O *D OAI211_X1
*CAP
1 *1335:C2 9.43146e-06
2 *1326:ZN 0
3 *514:8 0.000444722
4 *514:6 0.000435291
5 *514:8 *1326:C2 2.57731e-05
6 *514:8 *523:14 5.55566e-07
7 *514:8 *823:114 1.51941e-05
8 *1118:C1 *1335:C2 1.32348e-05
9 *365:71 *514:8 0
*RES
1 *1326:ZN *514:6 10 
2 *514:6 *514:8 48.4286 
3 *514:8 *1335:C2 11.25 
*END

*D_NET *515 0.00140956
*CONN
*I *1328:A I *D OAI221_X1
*I *1327:ZN O *D AOI22_X1
*CAP
1 *1328:A 0
2 *1327:ZN 4.30571e-05
3 *515:12 0.000595125
4 *515:10 0.000638182
5 *515:10 *1036:A 6.50827e-06
6 *515:10 *1327:B2 9.05228e-06
7 *515:12 *917:A 4.4596e-05
8 *515:12 *1109:B2 1.65208e-05
9 *515:12 *1383:CK 0
10 *515:12 *716:8 9.73906e-06
11 *515:12 *718:8 1.83315e-05
12 *515:12 *825:82 0
13 *515:12 *825:86 0
14 *515:12 *825:101 0
15 *515:12 *825:105 0
16 *515:12 *825:111 0
17 *515:12 *834:110 0
18 *515:12 *834:130 0
19 *515:12 *834:143 2.65134e-05
20 *1328:B2 *515:12 1.21774e-06
21 *1328:C1 *515:12 7.16188e-07
22 *1387:D *515:12 0
*RES
1 *1327:ZN *515:10 20 
2 *515:10 *515:12 61.75 
3 *515:12 *1328:A 5 
*END

*D_NET *516 0.00341879
*CONN
*I *1335:A2 I *D AOI222_X1
*I *1328:ZN O *D OAI221_X1
*CAP
1 *1335:A2 3.94868e-05
2 *1328:ZN 0.000117879
3 *516:26 0.000358666
4 *516:16 0.00106059
5 *516:14 0.000741408
6 *516:12 0.00046942
7 *516:10 0.0005873
8 *516:12 *836:46 0
9 *516:16 *929:A 1.671e-05
10 *516:16 *935:A 1.4139e-05
11 *516:16 *823:12 3.88957e-06
12 *516:26 *523:14 0
13 *516:26 *823:8 0
14 *1087:B1 *1335:A2 0
15 *1087:C2 *1335:A2 0
16 *1118:C1 *1335:A2 8.30282e-06
17 *1300:A1 *516:12 0
18 *1302:B2 *516:12 0
19 *1342:A1 *516:10 0
20 *1342:A1 *516:12 0
21 *1399:D *516:12 0
22 *1401:D *516:12 0
23 *1403:D *516:12 0
24 *345:8 *516:10 0
25 *386:16 *516:26 0
26 *414:8 *516:16 0
27 *414:8 *516:26 1.00706e-06
28 *476:216 *516:16 0
*RES
1 *1328:ZN *516:10 27.4643 
2 *516:10 *516:12 46.25 
3 *516:12 *516:14 5 
4 *516:14 *516:16 81 
5 *516:16 *516:26 47.9643 
6 *516:26 *1335:A2 9.25 
*END

*D_NET *517 0.000758258
*CONN
*I *1331:A I *D OAI211_X1
*I *1329:ZN O *D NAND3_X1
*CAP
1 *1331:A 0
2 *1329:ZN 0.000241945
3 *517:12 0.000241945
4 *517:12 *1329:A3 1.52725e-05
5 *517:12 *1331:B 6.66237e-05
6 *517:12 *519:12 0.000185728
7 *517:12 *823:46 6.74466e-06
*RES
1 *1329:ZN *517:12 45.9286 
2 *517:12 *1331:A 5 
*END

*D_NET *518 0.00113458
*CONN
*I *1331:B I *D OAI211_X1
*I *1330:ZN O *D AOI22_X1
*CAP
1 *1331:B 5.69102e-05
2 *1330:ZN 0.00028655
3 *518:8 0.00034346
4 *1331:B *519:12 1.87637e-06
5 *1331:B *823:46 6.85774e-07
6 *518:8 *1330:A1 1.72405e-05
7 *518:8 *1659:A 0
8 *518:8 *519:12 3.00797e-05
9 *518:8 *830:27 0
10 *1143:C1 *518:8 2.39022e-06
11 *411:24 *518:8 0.000325826
12 *445:14 *518:8 2.94066e-06
13 *517:12 *1331:B 6.66237e-05
*RES
1 *1330:ZN *518:8 46.8929 
2 *518:8 *1331:B 17.25 
*END

*D_NET *519 0.00252724
*CONN
*I *1335:B1 I *D AOI222_X1
*I *1331:ZN O *D OAI211_X1
*CAP
1 *1335:B1 0
2 *1331:ZN 7.74781e-05
3 *519:20 0.00085519
4 *519:12 0.000932668
5 *519:12 *823:46 5.61423e-05
6 *519:20 *523:14 2.86129e-06
7 *1147:C1 *519:20 4.40892e-05
8 *1331:B *519:12 1.87637e-06
9 *367:26 *519:20 4.92351e-05
10 *370:14 *519:20 0.000195866
11 *440:26 *519:20 9.21709e-05
12 *445:14 *519:12 2.23512e-07
13 *445:14 *519:20 3.6302e-06
14 *517:12 *519:12 0.000185728
15 *518:8 *519:12 3.00797e-05
*RES
1 *1331:ZN *519:12 28.2143 
2 *519:12 *519:20 47.04 
3 *519:20 *1335:B1 5 
*END

*D_NET *520 0.000443656
*CONN
*I *1334:A I *D OAI211_X1
*I *1332:ZN O *D NAND3_X1
*CAP
1 *1334:A 9.31557e-05
2 *1332:ZN 9.31557e-05
3 *1334:A *1334:B 2.39679e-06
4 *1334:A *522:8 0.000234181
5 *1334:A *828:392 0
6 *1334:A *842:8 3.09411e-06
7 *1153:B *1334:A 4.32144e-07
8 *1334:C1 *1334:A 1.72405e-05
*RES
1 *1332:ZN *1334:A 33.8929 
*END

*D_NET *521 0.00191092
*CONN
*I *1334:B I *D OAI211_X1
*I *1333:ZN O *D AOI22_X1
*CAP
1 *1334:B 1.72105e-05
2 *1333:ZN 0.000135091
3 *521:22 0.000460677
4 *521:20 0.000578558
5 *1334:B *842:8 4.93379e-06
6 *521:20 *1041:A 1.75851e-05
7 *521:20 *1333:A1 1.87369e-06
8 *521:20 *1333:B1 0
9 *521:20 *1436:CK 3.97999e-06
10 *521:20 *1443:CK 1.00033e-05
11 *521:20 *842:103 1.53342e-05
12 *521:22 *964:A 1.27522e-06
13 *521:22 *1042:A 0
14 *521:22 *1152:B2 0
15 *521:22 *1436:CK 5.64408e-05
16 *521:22 *679:10 0
17 *1153:B *1334:B 8.68394e-06
18 *1153:C1 *521:22 1.02676e-05
19 *1254:B1 *521:20 4.56054e-05
20 *1279:A2 *521:22 8.57354e-06
21 *1286:B1 *521:22 4.16195e-06
22 *1334:A *1334:B 2.39679e-06
23 *1334:C1 *521:22 1.67075e-05
24 *1344:B2 *521:22 0.000120658
25 *1347:A1 *521:20 1.77511e-05
26 *272:8 *521:22 1.67036e-05
27 *349:8 *521:22 1.64143e-05
28 *476:285 *521:22 0
29 *496:8 *521:22 0
30 *496:57 *521:22 0
31 *496:103 *521:20 4.52614e-06
32 *496:103 *521:22 3.56418e-06
33 *501:69 *521:22 6.64259e-05
34 *501:80 *521:22 0.000259647
35 *502:12 *521:22 5.86754e-06
*RES
1 *1333:ZN *521:20 36.0179 
2 *521:20 *521:22 58.9465 
3 *521:22 *1334:B 12.25 
*END

*D_NET *522 0.00135621
*CONN
*I *1336:B2 I *D AOI21_X1
*I *1334:ZN O *D OAI211_X1
*CAP
1 *1336:B2 6.5781e-05
2 *1334:ZN 0
3 *522:8 0.000455628
4 *522:6 0.000389847
5 *1336:B2 *1338:B1 2.38892e-05
6 *1336:B2 *827:173 4.92863e-06
7 *522:8 *1039:A 8.41155e-06
8 *522:8 *1332:A3 2.8947e-05
9 *522:8 *828:377 4.91718e-05
10 *1149:B1 *1336:B2 4.90397e-06
11 *1334:A *522:8 0.000234181
12 *1345:A1 *522:8 3.76667e-05
13 *11:23 *1336:B2 2.91591e-06
14 *11:23 *522:8 4.33613e-05
15 *462:19 *1336:B2 0
16 *499:46 *522:8 6.57477e-06
*RES
1 *1334:ZN *522:6 10 
2 *522:6 *522:8 52.1607 
3 *522:8 *1336:B2 16.8393 
*END

*D_NET *523 0.00133509
*CONN
*I *1338:B2 I *D AOI21_X1
*I *1335:ZN O *D AOI222_X1
*CAP
1 *1338:B2 5.51842e-05
2 *1335:ZN 9.65354e-05
3 *523:18 0.000386537
4 *523:14 0.000427889
5 *1053:A1 *523:18 2.01083e-05
6 *1053:A2 *523:18 1.32348e-05
7 *1087:C2 *523:14 0
8 *1118:B2 *523:14 0
9 *1118:C1 *523:14 4.26635e-05
10 *1379:D *1338:B2 1.61988e-05
11 *23:67 *523:18 7.12846e-05
12 *384:28 *523:14 4.32687e-06
13 *384:28 *523:18 0.000197708
14 *514:8 *523:14 5.55566e-07
15 *516:26 *523:14 0
16 *519:20 *523:14 2.86129e-06
*RES
1 *1335:ZN *523:14 25.8214 
2 *523:14 *523:18 49.6072 
3 *523:18 *1338:B2 16.3571 
*END

*D_NET *524 0.000216959
*CONN
*I *1338:B1 I *D AOI21_X1
*I *1336:ZN O *D AOI21_X1
*CAP
1 *1338:B1 8.97196e-05
2 *1336:ZN 8.97196e-05
3 *1336:B2 *1338:B1 2.38892e-05
4 *1379:D *1338:B1 1.11168e-06
5 *375:54 *1338:B1 1.25189e-05
6 *462:19 *1338:B1 0
*RES
1 *1336:ZN *1338:B1 29.6429 
*END

*D_NET *525 0.000191011
*CONN
*I *1338:A I *D AOI21_X1
*I *1337:ZN O *D OAI21_X1
*CAP
1 *1338:A 8.46281e-05
2 *1337:ZN 8.46281e-05
3 *1338:A *1337:A 3.10376e-06
4 *1379:D *1338:A 0
5 *384:28 *1338:A 0
6 *462:19 *1338:A 1.86514e-05
*RES
1 *1337:ZN *1338:A 19.1786 
*END

*D_NET *663 0.000840325
*CONN
*I *1154:A1 I *D AOI22_X1
*I *1020:A I *D INV_X1
*I *1364:Q O *D DFF_X1
*CAP
1 *1154:A1 0.000248794
2 *1020:A 5.0678e-05
3 *1364:Q 3.67037e-05
4 *663:8 0.000336176
5 *1020:A *1008:A 2.52965e-06
6 *1154:A1 *1007:A 5.20238e-07
7 *1154:A1 *735:8 1.48713e-06
8 *1154:A1 *741:10 0
9 *663:8 *1008:A 0
10 *1175:B2 *1020:A 1.72426e-05
11 *1212:B2 *1154:A1 3.47175e-05
12 *1370:D *1020:A 1.40196e-06
13 *455:10 *1154:A1 1.39582e-06
14 *476:117 *1020:A 2.30381e-05
15 *476:117 *1154:A1 7.02513e-05
16 *476:134 *1154:A1 1.53892e-05
*RES
1 *1364:Q *663:8 13.25 
2 *663:8 *1020:A 16.4286 
3 *663:8 *1154:A1 40.7857 
*END

*D_NET *664 0.00093428
*CONN
*I *1142:A1 I *D AOI22_X1
*I *1018:A I *D INV_X1
*I *1365:Q O *D DFF_X1
*CAP
1 *1142:A1 0.000232559
2 *1018:A 7.44397e-05
3 *1365:Q 7.06908e-05
4 *664:8 0.000377689
5 *1018:A *829:33 5.23859e-06
6 *1018:A *829:37 3.35796e-05
7 *1018:A *829:106 1.26998e-05
8 *1142:A1 *736:12 0
9 *1142:A1 *829:33 1.93795e-05
10 *664:8 *829:106 0
11 *1211:A2 *1142:A1 2.11677e-05
12 *1211:B2 *1142:A1 7.98408e-05
13 *444:8 *1142:A1 6.99525e-06
*RES
1 *1365:Q *664:8 18.25 
2 *664:8 *1018:A 19.25 
3 *664:8 *1142:A1 37.3929 
*END

*D_NET *665 0.000790765
*CONN
*I *1127:A1 I *D AOI22_X1
*I *1016:A I *D INV_X1
*I *1366:Q O *D DFF_X1
*CAP
1 *1127:A1 0.000253264
2 *1016:A 0.000103922
3 *1366:Q 0
4 *665:6 0.000357187
5 *1016:A *1366:CK 8.26038e-06
6 *1016:A *829:39 0
7 *1016:A *829:92 0
8 *1127:A1 *1003:A 2.00057e-05
9 *1127:A1 *737:12 2.1479e-06
10 *1127:B1 *1127:A1 1.72405e-05
11 *1210:B1 *1127:A1 0
12 *365:114 *1127:A1 1.72426e-05
13 *467:62 *1016:A 1.14945e-05
14 *484:97 *1127:A1 0
*RES
1 *1366:Q *665:6 10 
2 *665:6 *1016:A 21.25 
3 *665:6 *1127:A1 38.0714 
*END

*D_NET *666 0.000926036
*CONN
*I *1112:A1 I *D AOI22_X1
*I *1014:A I *D INV_X1
*I *1367:Q O *D DFF_X1
*CAP
1 *1112:A1 0.000305453
2 *1014:A 9.17006e-05
3 *1367:Q 0
4 *666:4 0.000397153
5 *1014:A *831:79 7.72792e-06
6 *1112:A1 *828:141 2.41259e-06
7 *1112:A1 *832:38 0
8 *1171:B1 *1014:A 6.65423e-06
9 *1172:B2 *1014:A 1.72426e-05
10 *1207:A1 *1112:A1 5.63653e-06
11 *1207:B2 *1112:A1 7.81408e-06
12 *1481:D *1112:A1 1.29746e-06
13 *363:72 *1112:A1 3.30471e-05
14 *365:87 *1112:A1 1.34605e-05
15 *416:12 *1112:A1 8.72084e-07
16 *467:14 *1014:A 3.47308e-05
17 *467:14 *1112:A1 8.33759e-07
18 *474:10 *1014:A 0
*RES
1 *1367:Q *666:4 5 
2 *666:4 *1014:A 25.75 
3 *666:4 *1112:A1 48.3572 
*END

*D_NET *667 0.000733565
*CONN
*I *1097:A1 I *D AOI22_X1
*I *1012:A I *D INV_X1
*I *1368:Q O *D DFF_X1
*CAP
1 *1097:A1 0.000197695
2 *1012:A 8.84653e-05
3 *1368:Q 0
4 *667:6 0.000286161
5 *1012:A *831:36 2.52511e-05
6 *1012:A *831:38 4.12911e-06
7 *1097:A1 *831:34 1.49198e-05
8 *1097:A1 *831:36 1.1429e-05
9 *1171:B2 *1012:A 3.49085e-06
10 *1208:B2 *1097:A1 0
11 *1209:B2 *1097:A1 1.91716e-05
12 *363:66 *1097:A1 3.35688e-05
13 *365:79 *1097:A1 3.35688e-05
14 *474:16 *1012:A 4.79658e-06
15 *474:16 *1097:A1 1.6278e-06
16 *474:258 *1097:A1 9.29011e-06
*RES
1 *1368:Q *667:6 10 
2 *667:6 *1012:A 20.6071 
3 *667:6 *1097:A1 34.3572 
*END

*D_NET *668 0.000850452
*CONN
*I *1082:A1 I *D AOI22_X1
*I *1010:A I *D INV_X1
*I *1369:Q O *D DFF_X1
*CAP
1 *1082:A1 0.000210935
2 *1010:A 0.000109386
3 *1369:Q 1.04063e-05
4 *668:8 0.000330727
5 *1010:A *1369:CK 1.02224e-05
6 *1082:A1 *828:169 5.28334e-06
7 *363:72 *1082:A1 2.27771e-05
8 *365:87 *1082:A1 2.27771e-05
9 *388:14 *1082:A1 2.77917e-07
10 *467:35 *1010:A 0
11 *473:10 *1010:A 3.63228e-05
12 *473:10 *1082:A1 2.16603e-05
13 *473:14 *1082:A1 5.9756e-05
14 *473:28 *1082:A1 9.91997e-06
*RES
1 *1369:Q *668:8 11.25 
2 *668:8 *1010:A 22.75 
3 *668:8 *1082:A1 36.9286 
*END

*D_NET *669 0.00105418
*CONN
*I *1062:A1 I *D AOI22_X1
*I *1008:A I *D INV_X1
*I *1370:Q O *D DFF_X1
*CAP
1 *1062:A1 0.000299575
2 *1008:A 0.000187838
3 *1370:Q 0
4 *669:4 0.000487413
5 *1008:A *1364:CK 1.88906e-05
6 *1062:A1 *1364:CK 0
7 *1062:A1 *1477:CK 1.19556e-05
8 *1062:A1 *829:92 0
9 *1020:A *1008:A 2.52965e-06
10 *1062:A2 *1062:A1 8.43429e-06
11 *1169:A2 *1008:A 2.23871e-06
12 *1210:B2 *1062:A1 3.81615e-06
13 *1370:D *1008:A 3.51992e-06
14 *363:90 *1062:A1 2.42478e-05
15 *365:114 *1062:A1 3.09143e-06
16 *369:10 *1062:A1 6.25848e-07
17 *483:52 *1062:A1 0
18 *483:69 *1062:A1 0
19 *663:8 *1008:A 0
*RES
1 *1370:Q *669:4 5 
2 *669:4 *1008:A 34.75 
3 *669:4 *1062:A1 48.6072 
*END

*D_NET *670 0.000986214
*CONN
*I *1330:A1 I *D AOI22_X1
*I *1049:A I *D INV_X1
*I *1371:Q O *D DFF_X1
*CAP
1 *1330:A1 0.000194103
2 *1049:A 9.87519e-05
3 *1371:Q 8.36081e-05
4 *670:8 0.000376463
5 *1049:A *1371:CK 3.39537e-05
6 *670:8 *1371:CK 0
7 *1477:D *1330:A1 1.56073e-06
8 *363:80 *1330:A1 1.66706e-05
9 *365:95 *1330:A1 6.06937e-06
10 *411:20 *1049:A 2.09547e-05
11 *411:20 *1330:A1 6.05044e-05
12 *411:24 *1330:A1 7.14054e-05
13 *484:64 *1330:A1 4.92863e-06
14 *518:8 *1330:A1 1.72405e-05
*RES
1 *1371:Q *670:8 21.25 
2 *670:8 *1049:A 22.75 
3 *670:8 *1330:A1 36.4286 
*END

*D_NET *671 0.000624493
*CONN
*I *1151:A2 I *D NAND3_X1
*I *950:A I *D INV_X1
*I *1420:Q O *D DFF_X1
*CAP
1 *1151:A2 8.14426e-05
2 *950:A 6.79996e-05
3 *1420:Q 0
4 *671:6 0.000149442
5 *950:A *1420:CK 1.14895e-05
6 *1151:A2 *851:75 4.45934e-05
7 *1151:A2 *851:77 2.75346e-06
8 *1277:B2 *950:A 4.93896e-05
9 *454:8 *950:A 6.84295e-05
10 *454:8 *1151:A2 0.000146395
11 *499:61 *950:A 2.55787e-06
*RES
1 *1420:Q *671:6 10 
2 *671:6 *950:A 19.8929 
3 *671:6 *1151:A2 21.9643 
*END

*D_NET *672 0.000314282
*CONN
*I *1144:A2 I *D NAND3_X1
*I *948:A I *D INV_X1
*I *1421:Q O *D DFF_X1
*CAP
1 *1144:A2 6.48865e-05
2 *948:A 4.43908e-05
3 *1421:Q 3.84334e-05
4 *672:8 0.000147711
5 *672:8 *851:81 0
6 *1276:B2 *948:A 1.72426e-05
7 *499:16 *948:A 2.16072e-07
8 *499:31 *948:A 1.40196e-06
9 *499:31 *672:8 0
*RES
1 *1421:Q *672:8 13.75 
2 *672:8 *948:A 15.1429 
3 *672:8 *1144:A2 17.0357 
*END

*D_NET *673 0.0005959
*CONN
*I *1129:A2 I *D NAND3_X1
*I *946:A I *D INV_X1
*I *1422:Q O *D DFF_X1
*CAP
1 *1129:A2 3.32383e-05
2 *946:A 0.000121564
3 *1422:Q 4.11326e-05
4 *673:6 0.000195935
5 *946:A *940:A 6.38328e-07
6 *946:A *1420:CK 2.83922e-05
7 *946:A *1430:CK 3.12109e-05
8 *946:A *676:8 1.58933e-05
9 *946:A *843:17 0
10 *946:A *843:19 2.27826e-05
11 *946:A *851:75 0
12 *1129:A2 *1430:CK 0
13 *673:6 *940:A 3.19164e-07
14 *673:6 *676:8 4.21607e-06
15 *673:6 *843:17 0
16 *673:6 *851:69 0
17 *1272:B2 *673:6 4.32759e-06
18 *1275:B2 *946:A 2.61812e-06
19 *434:8 *1129:A2 9.36313e-05
*RES
1 *1422:Q *673:6 9.25 
2 *673:6 *946:A 29.8214 
3 *673:6 *1129:A2 20 
*END

*D_NET *674 0.000352795
*CONN
*I *1114:A2 I *D NAND3_X1
*I *944:A I *D INV_X1
*I *1423:Q O *D DFF_X1
*CAP
1 *1114:A2 8.00186e-05
2 *944:A 8.69631e-05
3 *1423:Q 7.34115e-06
4 *674:8 0.000174323
5 *1114:A2 *851:83 3.5108e-06
6 *1114:A2 *851:93 6.38328e-07
7 *674:8 *851:83 0
8 *1274:B1 *944:A 0
9 *1274:B2 *944:A 0
10 *1423:D *944:A 0
*RES
1 *1423:Q *674:8 10.75 
2 *674:8 *944:A 18.5714 
3 *674:8 *1114:A2 18.1071 
*END

*D_NET *675 0.00047252
*CONN
*I *1099:A2 I *D NAND3_X1
*I *942:A I *D INV_X1
*I *1424:Q O *D DFF_X1
*CAP
1 *1099:A2 2.31697e-05
2 *942:A 3.24678e-05
3 *1424:Q 3.08591e-05
4 *675:8 8.64965e-05
5 *942:A *843:126 1.40196e-06
6 *942:A *851:57 5.83753e-05
7 *1099:A2 *851:57 9.04209e-05
8 *675:8 *677:10 3.83783e-05
9 *1273:A1 *942:A 0
10 *1273:B2 *942:A 1.72426e-05
11 *378:10 *1099:A2 2.72417e-06
12 *474:119 *942:A 4.98574e-05
13 *474:119 *1099:A2 4.11266e-05
*RES
1 *1424:Q *675:8 13.75 
2 *675:8 *942:A 16.0714 
3 *675:8 *1099:A2 15.6786 
*END

*D_NET *676 0.000575981
*CONN
*I *1084:A2 I *D NAND3_X1
*I *940:A I *D INV_X1
*I *1425:Q O *D DFF_X1
*CAP
1 *1084:A2 8.91306e-05
2 *940:A 4.22738e-05
3 *1425:Q 4.19499e-05
4 *676:8 0.000173354
5 *940:A *843:17 2.58428e-06
6 *1084:A2 *851:65 2.75346e-06
7 *1084:A2 *851:69 0
8 *676:8 *851:75 6.06867e-06
9 *946:A *940:A 6.38328e-07
10 *946:A *676:8 1.58933e-05
11 *392:12 *940:A 0
12 *392:12 *1084:A2 0
13 *434:8 *940:A 8.08846e-05
14 *434:8 *1084:A2 0.000115914
15 *673:6 *940:A 3.19164e-07
16 *673:6 *676:8 4.21607e-06
*RES
1 *1425:Q *676:8 14.75 
2 *676:8 *940:A 15.5714 
3 *676:8 *1084:A2 21.1071 
*END

*D_NET *677 0.00057921
*CONN
*I *1069:A2 I *D NAND3_X1
*I *938:A I *D INV_X1
*I *1426:Q O *D DFF_X1
*CAP
1 *1069:A2 6.61396e-05
2 *938:A 4.42818e-05
3 *1426:Q 0.000145963
4 *677:10 0.000256385
5 *938:A *843:96 3.09411e-06
6 *1069:A2 *851:61 7.72537e-06
7 *677:10 *1426:CK 0
8 *677:10 *843:96 0
9 *677:10 *843:126 0
10 *677:10 *851:61 0
11 *1271:B2 *938:A 1.72426e-05
12 *378:10 *938:A 0
13 *378:10 *1069:A2 0
14 *406:10 *938:A 0
15 *406:10 *1069:A2 0
16 *675:8 *677:10 3.83783e-05
*RES
1 *1426:Q *677:10 24.6786 
2 *677:10 *938:A 15.0714 
3 *677:10 *1069:A2 17.1071 
*END

*D_NET *678 0.000347361
*CONN
*I *1332:A3 I *D NAND3_X1
*I *1039:A I *D INV_X1
*I *1427:Q O *D DFF_X1
*CAP
1 *1332:A3 5.97013e-05
2 *1039:A 3.02569e-05
3 *1427:Q 5.10135e-05
4 *678:8 0.000140972
5 *1332:A3 *1332:A2 7.72537e-06
6 *1332:A3 *851:81 3.09143e-06
7 *678:8 *851:81 0
8 *1345:A1 *1039:A 1.72426e-05
9 *522:8 *1039:A 8.41155e-06
10 *522:8 *1332:A3 2.8947e-05
*RES
1 *1427:Q *678:8 14.75 
2 *678:8 *1039:A 13.7143 
3 *678:8 *1332:A3 17.7857 
*END

*D_NET *679 0.000868415
*CONN
*I *951:A I *D INV_X1
*I *1152:B2 I *D AOI22_X1
*I *1412:Q O *D DFF_X1
*CAP
1 *951:A 9.44359e-06
2 *1152:B2 0.000159357
3 *1412:Q 0.000116473
4 *679:10 0.000285273
5 *1152:B2 *825:55 1.12806e-05
6 *679:10 *964:A 1.72426e-05
7 *679:10 *1436:CK 5.01029e-05
8 *1285:B1 *1152:B2 1.6984e-05
9 *1412:D *951:A 5.52692e-06
10 *1412:D *1152:B2 6.71156e-06
11 *1412:D *679:10 0
12 *1436:D *679:10 1.07429e-05
13 *453:10 *1152:B2 2.40955e-06
14 *496:57 *951:A 2.23415e-06
15 *496:57 *1152:B2 2.8283e-05
16 *496:57 *679:10 2.09871e-05
17 *501:50 *1152:B2 5.38562e-05
18 *501:69 *1152:B2 2.11411e-05
19 *502:12 *1152:B2 2.61827e-06
20 *502:16 *1152:B2 3.80576e-05
21 *502:60 *1152:B2 9.69078e-06
22 *521:22 *1152:B2 0
23 *521:22 *679:10 0
*RES
1 *1412:Q *679:10 23.9286 
2 *679:10 *1152:B2 40.3929 
3 *679:10 *951:A 11.25 
*END

*D_NET *680 0.000418804
*CONN
*I *1145:B2 I *D AOI22_X1
*I *949:A I *D INV_X1
*I *1413:Q O *D DFF_X1
*CAP
1 *1145:B2 3.73349e-05
2 *949:A 3.73378e-05
3 *1413:Q 6.8935e-05
4 *680:10 0.000143608
5 *949:A *1413:CK 9.74263e-06
6 *1145:B2 *1145:A1 0
7 *1145:B2 *1413:CK 2.16072e-07
8 *680:10 *962:A 0
9 *680:10 *1145:A2 2.03632e-05
10 *680:10 *776:10 0
11 *1285:B2 *949:A 1.22428e-05
12 *1285:B2 *680:10 8.727e-07
13 *1413:D *949:A 2.75346e-06
14 *1413:D *1145:B2 5.74742e-05
15 *447:10 *680:10 0
16 *476:285 *949:A 3.82997e-06
17 *501:39 *1145:B2 1.75851e-05
18 *501:39 *680:10 6.50827e-06
*RES
1 *1413:Q *680:10 22.7143 
2 *680:10 *949:A 9.75 
3 *680:10 *1145:B2 10.75 
*END

*D_NET *681 0.000498544
*CONN
*I *1130:B2 I *D AOI22_X1
*I *947:A I *D INV_X1
*I *1414:Q O *D DFF_X1
*CAP
1 *1130:B2 3.01301e-05
2 *947:A 7.2837e-05
3 *1414:Q 6.76697e-05
4 *681:10 0.000170637
5 *947:A *844:52 1.32143e-05
6 *1130:B2 *1130:A2 6.38328e-07
7 *1130:B2 *844:65 0
8 *681:10 *1130:A1 3.55212e-06
9 *681:10 *1130:B1 0
10 *681:10 *826:61 0
11 *1131:B *947:A 2.97122e-05
12 *1257:A1 *947:A 7.19036e-06
13 *1284:A2 *947:A 4.32144e-07
14 *1414:D *947:A 2.63045e-05
15 *391:10 *947:A 4.89222e-06
16 *391:10 *681:10 2.82814e-05
17 *433:8 *947:A 2.05092e-05
18 *433:8 *1130:B2 8.58953e-06
19 *473:70 *947:A 3.18122e-06
20 *496:22 *947:A 2.86475e-06
21 *496:22 *1130:B2 7.90853e-06
*RES
1 *1414:Q *681:10 22.7143 
2 *681:10 *947:A 24.2857 
3 *681:10 *1130:B2 8.75 
*END

*D_NET *682 0.000383138
*CONN
*I *945:A I *D INV_X1
*I *1115:B2 I *D AOI22_X1
*I *1415:Q O *D DFF_X1
*CAP
1 *945:A 4.59429e-05
2 *1115:B2 6.53415e-05
3 *1415:Q 6.3821e-05
4 *682:10 0.000175105
5 *945:A *1115:A1 3.23723e-07
6 *945:A *1415:CK 2.07643e-05
7 *1115:B2 *1115:A1 1.16231e-05
8 *682:10 *778:12 0
9 *1283:A2 *945:A 2.16072e-07
10 *1283:B2 *682:10 0
11 *1415:D *945:A 0
*RES
1 *1415:Q *682:10 21.3571 
2 *682:10 *1115:B2 12.1071 
3 *682:10 *945:A 10.25 
*END

*D_NET *683 0.000440876
*CONN
*I *1100:B2 I *D AOI22_X1
*I *943:A I *D INV_X1
*I *1416:Q O *D DFF_X1
*CAP
1 *1100:B2 0
2 *943:A 3.41271e-05
3 *1416:Q 8.4417e-05
4 *683:12 0.000118544
5 *943:A *825:28 6.0406e-05
6 *683:12 *1100:A1 5.20238e-07
7 *683:12 *1100:A2 2.18022e-06
8 *683:12 *779:10 4.41032e-06
9 *683:12 *825:16 3.56223e-05
10 *683:12 *825:28 2.75346e-06
11 *683:12 *826:38 4.01849e-06
12 *683:12 *844:67 9.55059e-06
13 *683:12 *844:71 1.96924e-05
14 *683:12 *844:103 2.52514e-05
15 *1416:D *943:A 2.48915e-05
16 *1416:D *683:12 1.4491e-05
*RES
1 *1416:Q *683:12 26.4643 
2 *683:12 *943:A 10.75 
3 *683:12 *1100:B2 5 
*END

*D_NET *684 0.000451925
*CONN
*I *1085:B2 I *D AOI22_X1
*I *941:A I *D INV_X1
*I *1417:Q O *D DFF_X1
*CAP
1 *1085:B2 5.13428e-05
2 *941:A 5.81681e-05
3 *1417:Q 7.9565e-05
4 *684:10 0.000189076
5 *941:A *1085:A1 4.67774e-06
6 *1085:B2 *1085:A1 4.55118e-06
7 *1085:B2 *1085:B1 2.75346e-06
8 *1085:B2 *844:116 0
9 *684:10 *780:12 0
10 *1281:A2 *941:A 1.08036e-06
11 *1281:B1 *1085:B2 7.02617e-06
12 *1417:D *941:A 3.51536e-06
13 *1417:D *1085:B2 3.04787e-06
14 *391:8 *1085:B2 2.66727e-05
15 *391:10 *684:10 1.72426e-05
16 *473:74 *941:A 2.55787e-06
17 *473:89 *941:A 6.48216e-07
18 *473:89 *684:10 0
*RES
1 *1417:Q *684:10 22.7143 
2 *684:10 *941:A 10.9286 
3 *684:10 *1085:B2 11.9286 
*END

*D_NET *685 0.000921638
*CONN
*I *939:A I *D INV_X1
*I *1070:B2 I *D AOI22_X1
*I *1418:Q O *D DFF_X1
*CAP
1 *939:A 0
2 *1070:B2 0
3 *1418:Q 8.20024e-05
4 *685:26 0.000193798
5 *685:12 0.000275801
6 *685:12 *844:103 1.04526e-05
7 *685:12 *844:114 1.97744e-05
8 *685:26 *844:103 0
9 *1280:B1 *685:26 1.87637e-06
10 *1282:A2 *685:26 4.24381e-05
11 *1418:D *685:12 1.5896e-05
12 *1442:D *685:12 3.85541e-05
13 *377:16 *685:26 0.000224347
14 *377:18 *685:26 1.66988e-05
*RES
1 *1418:Q *685:12 25.7857 
2 *685:12 *685:26 45.0714 
3 *685:26 *1070:B2 5 
4 *685:12 *939:A 5 
*END

*D_NET *686 0.000723043
*CONN
*I *1040:A I *D INV_X1
*I *1333:B2 I *D AOI22_X1
*I *1419:Q O *D DFF_X1
*CAP
1 *1040:A 1.22592e-05
2 *1333:B2 0.000172664
3 *1419:Q 8.3375e-05
4 *686:10 0.000268298
5 *1040:A *842:103 4.9678e-06
6 *1333:B2 *1333:B1 2.14856e-06
7 *1333:B2 *842:103 0
8 *686:10 *825:203 5.01004e-05
9 *686:10 *826:91 5.01004e-05
10 *1254:B1 *1333:B2 1.3528e-05
11 *1283:B1 *1040:A 2.16072e-07
12 *1344:A1 *1333:B2 2.06764e-05
13 *1344:A1 *686:10 4.45555e-06
14 *1344:B2 *1333:B2 1.36734e-05
15 *1347:A1 *686:10 0
16 *1443:D *1333:B2 4.07267e-06
17 *496:103 *1333:B2 0
18 *496:103 *686:10 0
19 *502:31 *1040:A 2.08416e-06
20 *502:31 *1333:B2 2.0424e-05
*RES
1 *1419:Q *686:10 20.4286 
2 *686:10 *1333:B2 29.3214 
3 *686:10 *1040:A 11.25 
*END

*D_NET *687 0.000339135
*CONN
*I *936:A I *D INV_X1
*I *1158:A1 I *D AOI22_X1
*I *1404:Q O *D DFF_X1
*CAP
1 *936:A 0
2 *1158:A1 6.02126e-05
3 *1404:Q 8.17941e-05
4 *687:14 0.000142007
5 *1158:A1 *1158:A2 1.26998e-05
6 *1158:A1 *1158:B2 1.39839e-06
7 *1158:A1 *834:73 0
8 *1296:B2 *687:14 3.88456e-06
9 *1323:B1 *1158:A1 0
10 *1323:B1 *687:14 7.87454e-06
11 *1340:A2 *687:14 2.92639e-05
*RES
1 *1404:Q *687:14 24 
2 *687:14 *1158:A1 11.25 
3 *687:14 *936:A 5 
*END

*D_NET *688 0.000412806
*CONN
*I *934:A I *D INV_X1
*I *1137:A1 I *D AOI22_X1
*I *1405:Q O *D DFF_X1
*CAP
1 *934:A 4.44615e-05
2 *1137:A1 1.78155e-05
3 *1405:Q 6.35733e-05
4 *688:10 0.00012585
5 *934:A *1137:A2 2.48915e-05
6 *1295:B2 *934:A 3.88456e-06
7 *1322:B2 *934:A 1.27666e-06
8 *1405:D *934:A 6.53779e-05
9 *1405:D *1137:A1 0
10 *1405:D *688:10 0
11 *439:10 *1137:A1 1.55645e-05
12 *439:10 *688:10 1.65284e-05
13 *439:12 *688:10 3.35822e-05
*RES
1 *1405:Q *688:10 16.8929 
2 *688:10 *1137:A1 12.2857 
3 *688:10 *934:A 17.1786 
*END

*D_NET *689 0.000247608
*CONN
*I *932:A I *D INV_X1
*I *1122:A1 I *D AOI22_X1
*I *1406:Q O *D DFF_X1
*CAP
1 *932:A 0
2 *1122:A1 3.60257e-05
3 *1406:Q 7.72505e-05
4 *689:10 0.000113276
5 *1122:A1 *826:169 0
6 *689:10 *826:169 0
7 *689:10 *833:36 0
8 *1294:B2 *689:10 0
9 *1406:D *1122:A1 0
10 *1406:D *689:10 0
11 *425:12 *1122:A1 2.10559e-05
*RES
1 *1406:Q *689:10 18.0714 
2 *689:10 *1122:A1 13.7143 
3 *689:10 *932:A 10 
*END

*D_NET *690 0.000427481
*CONN
*I *930:A I *D INV_X1
*I *1109:A1 I *D AOI22_X1
*I *1407:Q O *D DFF_X1
*CAP
1 *930:A 3.53174e-05
2 *1109:A1 8.37219e-05
3 *1407:Q 7.07336e-05
4 *690:8 0.000189773
5 *930:A *1407:CK 9.30692e-06
6 *1109:A1 *825:82 3.65322e-06
7 *1109:A1 *825:86 8.52419e-06
8 *1109:A1 *826:123 2.28607e-06
9 *1109:A1 *826:138 4.45767e-06
10 *1109:A1 *834:160 0
11 *690:8 *834:160 0
12 *1407:D *930:A 9.30692e-06
13 *385:10 *1109:A1 1.04006e-05
*RES
1 *1407:Q *690:8 17.7143 
2 *690:8 *1109:A1 19.2857 
3 *690:8 *930:A 14.25 
*END

*D_NET *691 0.000532023
*CONN
*I *1094:A1 I *D AOI22_X1
*I *928:A I *D INV_X1
*I *1408:Q O *D DFF_X1
*CAP
1 *1094:A1 3.92837e-05
2 *928:A 1.32432e-05
3 *1408:Q 0.00010847
4 *691:10 0.000160997
5 *928:A *1094:B1 0
6 *928:A *715:10 4.35646e-05
7 *1094:A1 *1094:B2 7.42003e-06
8 *691:10 *1094:A2 0
9 *691:10 *715:10 0.000116736
10 *691:10 *834:46 0
11 *1292:B2 *928:A 3.85496e-06
12 *399:12 *1094:A1 0
13 *511:10 *1094:A1 3.84531e-05
14 *511:72 *691:10 0
*RES
1 *1408:Q *691:10 22.8929 
2 *691:10 *928:A 12.2857 
3 *691:10 *1094:A1 15.4286 
*END

*D_NET *692 0.000421218
*CONN
*I *926:A I *D INV_X1
*I *1079:A1 I *D AOI22_X1
*I *1409:Q O *D DFF_X1
*CAP
1 *926:A 0
2 *1079:A1 5.5486e-05
3 *1409:Q 0.000109101
4 *692:10 0.000164587
5 *1291:A1 *1079:A1 9.20438e-05
*RES
1 *1409:Q *692:10 21.4643 
2 *692:10 *1079:A1 17.3571 
3 *692:10 *926:A 10 
*END

*D_NET *693 0.000569836
*CONN
*I *924:A I *D INV_X1
*I *1059:A1 I *D AOI22_X1
*I *1410:Q O *D DFF_X1
*CAP
1 *924:A 0
2 *1059:A1 0.000160744
3 *1410:Q 0.000113793
4 *693:10 0.000274537
5 *1059:A1 *1059:A2 2.75346e-06
6 *1059:A1 *1059:B1 3.65322e-06
7 *1059:A1 *1059:B2 1.07733e-05
8 *1059:A1 *717:10 3.58094e-06
9 *693:10 *1380:CK 0
*RES
1 *1410:Q *693:10 21.9643 
2 *693:10 *1059:A1 27.3571 
3 *693:10 *924:A 10 
*END

*D_NET *694 0.000380136
*CONN
*I *1037:A I *D INV_X1
*I *1327:A1 I *D AOI22_X1
*I *1411:Q O *D DFF_X1
*CAP
1 *1037:A 0
2 *1327:A1 6.74886e-05
3 *1411:Q 9.32344e-05
4 *694:12 0.000160723
5 *1327:A1 *1327:A2 2.39679e-06
6 *1327:A1 *825:105 2.75346e-06
7 *1327:A1 *825:111 2.43548e-06
8 *694:12 *1411:CK 6.50827e-06
9 *1343:A1 *1327:A1 0
10 *1343:A2 *694:12 4.4596e-05
11 *1411:D *1327:A1 0
*RES
1 *1411:Q *694:12 26.2857 
2 *694:12 *1327:A1 21.4286 
3 *694:12 *1037:A 5 
*END

*D_NET *695 0.000722287
*CONN
*I *937:A I *D INV_X1
*I *1396:Q O *D DFF_X1
*CAP
1 *937:A 2.86928e-05
2 *1396:Q 0.000193945
3 *695:18 0.000222638
4 *937:A *1388:CK 5.00003e-06
5 *695:18 *836:19 0
6 *695:18 *836:34 0
7 *1396:D *937:A 0
8 *1396:D *695:18 4.74133e-05
9 *244:10 *695:18 1.57178e-05
10 *386:8 *695:18 0.000156202
11 *460:16 *695:18 0
12 *476:273 *695:18 5.26791e-05
*RES
1 *1396:Q *695:18 49.6429 
2 *695:18 *937:A 7.75 
*END

*D_NET *696 0.000242512
*CONN
*I *935:A I *D INV_X1
*I *1397:Q O *D DFF_X1
*CAP
1 *935:A 0.000108106
2 *1397:Q 0.000108106
3 *386:14 *935:A 1.21614e-05
4 *516:16 *935:A 1.4139e-05
*RES
1 *1397:Q *935:A 32.4286 
*END

*D_NET *697 0.000180474
*CONN
*I *933:A I *D INV_X1
*I *1398:Q O *D DFF_X1
*CAP
1 *933:A 7.92525e-05
2 *1398:Q 7.92525e-05
3 *1398:D *933:A 1.5896e-05
4 *439:12 *933:A 6.07323e-06
5 *476:273 *933:A 0
*RES
1 *1398:Q *933:A 28.75 
*END

*D_NET *698 0.000255428
*CONN
*I *931:A I *D INV_X1
*I *1399:Q O *D DFF_X1
*CAP
1 *931:A 9.39467e-05
2 *1399:Q 9.39467e-05
3 *931:A *1399:CK 0
4 *931:A *825:82 3.6947e-05
5 *1110:A *931:A 2.64589e-05
6 *1110:B2 *931:A 0
7 *238:8 *931:A 4.12911e-06
*RES
1 *1399:Q *931:A 31.7143 
*END

*D_NET *699 0.000208286
*CONN
*I *929:A I *D INV_X1
*I *1400:Q O *D DFF_X1
*CAP
1 *929:A 6.46053e-05
2 *1400:Q 6.46053e-05
3 *1301:A1 *929:A 0
4 *1392:D *929:A 4.4596e-05
5 *236:10 *929:A 0
6 *474:152 *929:A 1.77697e-05
7 *516:16 *929:A 1.671e-05
*RES
1 *1400:Q *929:A 28.5714 
*END

*D_NET *700 0.000156558
*CONN
*I *927:A I *D INV_X1
*I *1401:Q O *D DFF_X1
*CAP
1 *927:A 5.54648e-05
2 *1401:Q 5.54648e-05
3 *927:A *825:82 0
4 *927:A *836:46 0
5 *1080:B2 *927:A 2.39679e-06
6 *509:35 *927:A 4.32319e-05
*RES
1 *1401:Q *927:A 26.0357 
*END

*D_NET *701 0.000355544
*CONN
*I *925:A I *D INV_X1
*I *1402:Q O *D DFF_X1
*CAP
1 *925:A 0.000107468
2 *1402:Q 0.000107468
3 *925:A *828:243 0
4 *439:12 *925:A 4.01262e-05
5 *476:208 *925:A 2.05208e-05
6 *509:86 *925:A 7.99601e-05
*RES
1 *1402:Q *925:A 33.5714 
*END

*D_NET *702 0.000154233
*CONN
*I *1038:A I *D INV_X1
*I *1403:Q O *D DFF_X1
*CAP
1 *1038:A 5.98584e-05
2 *1403:Q 5.98584e-05
3 *1038:A *825:82 1.34605e-05
4 *1080:A *1038:A 0
5 *1328:C1 *1038:A 1.79588e-05
6 *1342:A1 *1038:A 0
7 *1403:D *1038:A 0
8 *345:8 *1038:A 3.09682e-06
*RES
1 *1403:Q *1038:A 26.9643 
*END

*D_NET *703 0.000176667
*CONN
*I *922:A I *D INV_X1
*I *1388:Q O *D DFF_X1
*CAP
1 *922:A 6.11233e-05
2 *1388:Q 6.11233e-05
3 *229:10 *922:A 0
4 *399:18 *922:A 3.90865e-05
5 *509:78 *922:A 1.53342e-05
*RES
1 *1388:Q *922:A 27.3929 
*END

*D_NET *704 0.000303395
*CONN
*I *1136:A2 I *D NAND3_X1
*I *920:A I *D INV_X1
*I *1389:Q O *D DFF_X1
*CAP
1 *1136:A2 7.2171e-05
2 *920:A 6.19671e-05
3 *1389:Q 8.71307e-06
4 *704:6 0.000142851
5 *1136:A2 *1136:A3 2.75346e-06
6 *1136:A2 *851:93 0
7 *1138:A *1136:A2 8.69668e-06
8 *1313:B2 *1136:A2 6.24257e-06
9 *1389:D *920:A 0
10 *1389:D *1136:A2 0
*RES
1 *1389:Q *704:6 5.92857 
2 *704:6 *920:A 12.4643 
3 *704:6 *1136:A2 14.9286 
*END

*D_NET *705 0.000329086
*CONN
*I *1121:A2 I *D NAND3_X1
*I *918:A I *D INV_X1
*I *1390:Q O *D DFF_X1
*CAP
1 *1121:A2 5.27526e-05
2 *918:A 1.99438e-05
3 *1390:Q 6.02821e-05
4 *705:10 0.000132979
5 *1123:A *1121:A2 1.34578e-05
6 *1123:A *705:10 4.55424e-05
7 *1312:B2 *918:A 4.12911e-06
8 *1390:D *1121:A2 0
9 *1398:D *1121:A2 0
10 *1398:D *705:10 0
11 *240:12 *705:10 0
*RES
1 *1390:Q *705:10 16.5357 
2 *705:10 *918:A 12.2857 
3 *705:10 *1121:A2 15.9286 
*END

*D_NET *706 0.000204141
*CONN
*I *916:A I *D INV_X1
*I *1391:Q O *D DFF_X1
*CAP
1 *916:A 9.95656e-05
2 *1391:Q 9.95656e-05
3 *1311:B1 *916:A 0
4 *1391:D *916:A 5.00979e-06
5 *223:10 *916:A 0
*RES
1 *1391:Q *916:A 30.6071 
*END

*D_NET *707 0.000274257
*CONN
*I *914:A I *D INV_X1
*I *1392:Q O *D DFF_X1
*CAP
1 *914:A 0.000126994
2 *1392:Q 0.000126994
3 *474:152 *914:A 2.02694e-05
4 *476:275 *914:A 0
*RES
1 *1392:Q *914:A 23.5714 
*END

*D_NET *708 0.000201114
*CONN
*I *912:A I *D INV_X1
*I *1393:Q O *D DFF_X1
*CAP
1 *912:A 9.88118e-05
2 *1393:Q 9.88118e-05
3 *912:A *836:89 0
4 *219:8 *912:A 3.49085e-06
*RES
1 *1393:Q *912:A 30.1071 
*END

*D_NET *709 0.000527161
*CONN
*I *1055:A1 I *D NAND3_X1
*I *909:A I *D INV_X1
*I *1394:Q O *D DFF_X1
*CAP
1 *1055:A1 9.62442e-05
2 *909:A 0
3 *1394:Q 0.000144966
4 *709:14 0.00024121
5 *709:14 *1394:CK 0
6 *1060:A *1055:A1 0
7 *1060:A *709:14 2.2843e-06
8 *1060:B *709:14 6.38328e-07
9 *1060:C2 *709:14 3.41146e-05
10 *1299:B2 *1055:A1 0
11 *1312:A1 *1055:A1 0
12 *1381:D *709:14 0
13 *1394:D *1055:A1 5.1203e-06
14 *1394:D *709:14 1.73963e-06
15 *1402:D *1055:A1 8.43215e-07
16 *509:88 *1055:A1 0
17 *509:96 *1055:A1 0
*RES
1 *1394:Q *709:14 21.5 
2 *709:14 *909:A 5 
3 *709:14 *1055:A1 25.8929 
*END

*D_NET *710 0.00019731
*CONN
*I *1035:A I *D INV_X1
*I *1395:Q O *D DFF_X1
*CAP
1 *1035:A 9.54322e-05
2 *1395:Q 9.54322e-05
3 *1395:D *1035:A 6.44574e-06
4 *342:8 *1035:A 0
*RES
1 *1395:Q *1035:A 30.1071 
*END

*D_NET *711 0.000487399
*CONN
*I *923:A I *D INV_X1
*I *1158:B2 I *D AOI22_X1
*I *1380:Q O *D DFF_X1
*CAP
1 *923:A 0
2 *1158:B2 0.000114572
3 *1380:Q 8.9445e-05
4 *711:10 0.000204017
5 *1158:B2 *1380:CK 2.00032e-05
6 *1158:B2 *834:73 0
7 *711:10 *1380:CK 0
8 *1158:A1 *1158:B2 1.39839e-06
9 *1323:B1 *1158:B2 0
10 *1323:B2 *1158:B2 4.88515e-05
11 *1323:B2 *711:10 4.12911e-06
12 *1380:D *1158:B2 4.9829e-06
13 *1380:D *711:10 0
*RES
1 *1380:Q *711:10 19.4286 
2 *711:10 *1158:B2 23.2143 
3 *711:10 *923:A 10 
*END

*D_NET *712 0.000395177
*CONN
*I *1137:B2 I *D AOI22_X1
*I *921:A I *D INV_X1
*I *1381:Q O *D DFF_X1
*CAP
1 *1137:B2 3.83206e-05
2 *921:A 0
3 *1381:Q 9.23759e-05
4 *712:12 0.000130696
5 *1137:B2 *1137:A2 4.9829e-06
6 *1137:B2 *1137:B1 3.88456e-06
7 *1137:B2 *833:18 3.90865e-05
8 *1322:B2 *1137:B2 3.22609e-05
9 *1405:D *712:12 3.90865e-05
10 *366:14 *1137:B2 1.44825e-05
11 *439:10 *712:12 0
*RES
1 *1381:Q *712:12 23.75 
2 *712:12 *921:A 5 
3 *712:12 *1137:B2 11.6786 
*END

*D_NET *713 0.000628014
*CONN
*I *1122:B2 I *D AOI22_X1
*I *919:A I *D INV_X1
*I *1382:Q O *D DFF_X1
*CAP
1 *1122:B2 3.89552e-05
2 *919:A 0
3 *1382:Q 0.000153611
4 *713:18 0.000192566
5 *713:18 *910:A 1.32348e-05
6 *713:18 *1059:B1 0
7 *713:18 *1059:B2 0
8 *713:18 *717:10 0
9 *713:18 *825:127 5.97101e-05
10 *713:18 *826:169 5.56936e-06
11 *713:18 *833:36 0.000106326
12 *1321:A1 *1122:B2 1.3638e-05
13 *1321:A1 *713:18 2.14856e-06
14 *1321:B2 *713:18 6.99525e-06
15 *1386:D *713:18 5.9679e-06
16 *366:14 *1122:B2 2.6197e-05
17 *366:14 *713:18 3.09411e-06
*RES
1 *1382:Q *713:18 34.5 
2 *713:18 *919:A 5 
3 *713:18 *1122:B2 10.75 
*END

*D_NET *714 0.000388243
*CONN
*I *1109:B2 I *D AOI22_X1
*I *917:A I *D INV_X1
*I *1383:Q O *D DFF_X1
*CAP
1 *1109:B2 3.98992e-05
2 *917:A 7.30916e-05
3 *1383:Q 0
4 *714:4 0.000112991
5 *917:A *1383:CK 2.96955e-05
6 *917:A *825:86 0
7 *917:A *834:160 6.84316e-05
8 *1109:B2 *825:86 0
9 *1320:B2 *917:A 3.01743e-06
10 *515:12 *917:A 4.4596e-05
11 *515:12 *1109:B2 1.65208e-05
*RES
1 *1383:Q *714:4 5 
2 *714:4 *917:A 24.9286 
3 *714:4 *1109:B2 19.7143 
*END

*D_NET *715 0.000560607
*CONN
*I *1094:B2 I *D AOI22_X1
*I *915:A I *D INV_X1
*I *1384:Q O *D DFF_X1
*CAP
1 *1094:B2 3.72599e-05
2 *915:A 3.3582e-05
3 *1384:Q 8.31193e-05
4 *715:10 0.000153961
5 *915:A *834:40 3.09411e-06
6 *1094:B2 *834:40 5.4899e-05
7 *928:A *715:10 4.35646e-05
8 *1094:A1 *1094:B2 7.42003e-06
9 *1292:B2 *915:A 3.11733e-06
10 *1292:B2 *715:10 5.36441e-07
11 *1408:D *915:A 8.26038e-06
12 *505:20 *915:A 7.66675e-07
13 *511:10 *1094:B2 0
14 *511:10 *715:10 1.42898e-05
15 *691:10 *715:10 0.000116736
*RES
1 *1384:Q *715:10 21.9286 
2 *715:10 *915:A 13.0357 
3 *715:10 *1094:B2 15.25 
*END

*D_NET *716 0.000391088
*CONN
*I *1079:B2 I *D AOI22_X1
*I *913:A I *D INV_X1
*I *1385:Q O *D DFF_X1
*CAP
1 *1079:B2 2.04404e-05
2 *913:A 4.76871e-05
3 *1385:Q 3.95459e-05
4 *716:8 0.000107673
5 *913:A *1094:B1 0
6 *913:A *834:143 7.19036e-06
7 *1079:B2 *1094:B1 0
8 *1079:B2 *825:101 4.79358e-06
9 *1079:B2 *825:105 2.39679e-06
10 *716:8 *825:105 7.34533e-06
11 *1291:A1 *913:A 0.000106082
12 *1291:A1 *1079:B2 3.81944e-05
13 *1320:B1 *913:A 0
14 *511:104 *913:A 0
15 *515:12 *716:8 9.73906e-06
*RES
1 *1385:Q *716:8 14.75 
2 *716:8 *913:A 16.4286 
3 *716:8 *1079:B2 13.0357 
*END

*D_NET *717 0.000396806
*CONN
*I *1059:B2 I *D AOI22_X1
*I *910:A I *D INV_X1
*I *1386:Q O *D DFF_X1
*CAP
1 *1059:B2 4.08179e-05
2 *910:A 4.12993e-05
3 *1386:Q 0.000101115
4 *717:10 0.000183232
5 *1059:B2 *1059:B1 2.75346e-06
6 *717:10 *1386:CK 0
7 *1059:A1 *1059:B2 1.07733e-05
8 *1059:A1 *717:10 3.58094e-06
9 *713:18 *910:A 1.32348e-05
10 *713:18 *1059:B2 0
11 *713:18 *717:10 0
*RES
1 *1386:Q *717:10 15.9286 
2 *717:10 *910:A 9.89286 
3 *717:10 *1059:B2 9.75 
*END

*D_NET *718 0.000266321
*CONN
*I *1327:B2 I *D AOI22_X1
*I *1036:A I *D INV_X1
*I *1387:Q O *D DFF_X1
*CAP
1 *1327:B2 1.66814e-05
2 *1036:A 5.41877e-05
3 *1387:Q 3.67242e-05
4 *718:8 0.000107593
5 *1036:A *1411:CK 0
6 *718:8 *825:105 0
7 *1340:A1 *1036:A 1.72426e-05
8 *515:10 *1036:A 6.50827e-06
9 *515:10 *1327:B2 9.05228e-06
10 *515:12 *718:8 1.83315e-05
*RES
1 *1387:Q *718:8 14.25 
2 *718:8 *1036:A 16.0714 
3 *718:8 *1327:B2 12.2857 
*END

*D_NET *719 9.18992e-05
*CONN
*I *1021:A I *D INV_X1
*I *1356:Q O *D DFF_X1
*CAP
1 *1021:A 4.47512e-05
2 *1356:Q 4.47512e-05
3 *1021:A *1356:CK 0
4 *1063:C1 *1021:A 2.39679e-06
*RES
1 *1356:Q *1021:A 14.25 
*END

*D_NET *720 0.000131327
*CONN
*I *1019:A I *D INV_X1
*I *1357:Q O *D DFF_X1
*CAP
1 *1019:A 4.28789e-05
2 *1357:Q 4.28789e-05
3 *1019:A *823:52 4.79658e-06
4 *1190:A1 *1019:A 2.39679e-06
5 *471:51 *1019:A 3.83757e-05
*RES
1 *1357:Q *1019:A 15.3571 
*END

*D_NET *721 0.000104874
*CONN
*I *1017:A I *D INV_X1
*I *1358:Q O *D DFF_X1
*CAP
1 *1017:A 4.43293e-05
2 *1358:Q 4.43293e-05
3 *1017:A *823:52 1.26998e-05
4 *1017:A *823:56 3.51536e-06
5 *471:53 *1017:A 0
6 *476:161 *1017:A 0
*RES
1 *1358:Q *1017:A 14.6786 
*END

*D_NET *722 0.000130609
*CONN
*I *1015:A I *D INV_X1
*I *1359:Q O *D DFF_X1
*CAP
1 *1015:A 5.73108e-05
2 *1359:Q 5.73108e-05
3 *1015:A *823:29 0
4 *1184:A2 *1015:A 8.43215e-07
5 *471:15 *1015:A 1.51442e-05
*RES
1 *1359:Q *1015:A 16.0357 
*END

*D_NET *723 0.000175985
*CONN
*I *1013:A I *D INV_X1
*I *1360:Q O *D DFF_X1
*CAP
1 *1013:A 4.30189e-05
2 *1360:Q 4.30189e-05
3 *1013:A *823:14 3.83783e-05
4 *1194:A1 *1013:A 4.29819e-05
5 *379:10 *1013:A 8.58678e-06
*RES
1 *1360:Q *1013:A 26.0357 
*END

*D_NET *724 0.000115375
*CONN
*I *1011:A I *D INV_X1
*I *1361:Q O *D DFF_X1
*CAP
1 *1011:A 5.18502e-05
2 *1361:Q 5.18502e-05
3 *1011:A *823:29 6.87788e-06
4 *471:15 *1011:A 4.79658e-06
*RES
1 *1361:Q *1011:A 15.3571 
*END

*D_NET *725 0.000105294
*CONN
*I *1009:A I *D INV_X1
*I *1362:Q O *D DFF_X1
*CAP
1 *1009:A 3.66297e-05
2 *1362:Q 3.66297e-05
3 *1009:A *1356:CK 1.51469e-05
4 *1192:A1 *1009:A 2.39679e-06
5 *1356:D *1009:A 1.4491e-05
*RES
1 *1362:Q *1009:A 14.6786 
*END

*D_NET *726 0.000122348
*CONN
*I *1050:A I *D INV_X1
*I *1363:Q O *D DFF_X1
*CAP
1 *1050:A 5.38849e-05
2 *1363:Q 5.38849e-05
3 *1050:A *823:35 6.07323e-06
4 *471:33 *1050:A 7.66204e-06
5 *471:42 *1050:A 8.43215e-07
*RES
1 *1363:Q *1050:A 16.0357 
*END

*D_NET *727 0.000298607
*CONN
*I *1006:A I *D INV_X1
*I *1484:Q O *D DFF_X1
*CAP
1 *1006:A 0.000149303
2 *1484:Q 0.000149303
3 *1006:A *1484:CK 0
4 *1006:A *833:51 0
5 *1006:A *833:60 0
6 *313:10 *1006:A 0
*RES
1 *1484:Q *1006:A 34.9286 
*END

*D_NET *728 0.000387025
*CONN
*I *1004:A I *D INV_X1
*I *1141:A2 I *D NAND3_X1
*I *1485:Q O *D DFF_X1
*CAP
1 *1004:A 5.43063e-06
2 *1141:A2 4.33937e-05
3 *1485:Q 0.000116104
4 *728:10 0.000164929
5 *1004:A *833:86 1.39839e-06
6 *728:10 *833:86 0
7 *1201:B2 *1141:A2 7.65279e-06
8 *1201:B2 *728:10 3.01743e-06
9 *443:12 *1141:A2 7.14654e-06
10 *480:54 *1004:A 7.72537e-06
11 *480:54 *1141:A2 3.0227e-05
12 *481:21 *1141:A2 0
*RES
1 *1485:Q *728:10 21.9643 
2 *728:10 *1141:A2 15.75 
3 *728:10 *1004:A 10.75 
*END

*D_NET *729 0.000921861
*CONN
*I *1126:A2 I *D NAND3_X1
*I *1002:A I *D INV_X1
*I *1486:Q O *D DFF_X1
*CAP
1 *1126:A2 0.000205369
2 *1002:A 0
3 *1486:Q 9.65414e-05
4 *729:14 0.00030191
5 *1126:A2 *833:69 0
6 *1126:A2 *851:111 0.000118825
7 *1126:A2 *851:113 0.000157677
8 *729:14 *833:69 0
9 *729:14 *851:111 2.83063e-05
10 *1201:B2 *1126:A2 0
11 *476:163 *1126:A2 0
12 *480:72 *1126:A2 4.97191e-06
13 *480:72 *729:14 8.26038e-06
14 *481:29 *1126:A2 0
*RES
1 *1486:Q *729:14 26.0357 
2 *729:14 *1002:A 5 
3 *729:14 *1126:A2 41.8929 
*END

*D_NET *730 0.000366634
*CONN
*I *1000:A I *D INV_X1
*I *1487:Q O *D DFF_X1
*CAP
1 *1000:A 0
2 *1487:Q 9.81656e-05
3 *730:16 6.65138e-05
4 *730:10 0.000164679
5 *730:16 *851:127 0
6 *1198:B1 *730:10 1.87199e-05
7 *1198:B1 *730:16 1.88334e-06
8 *1199:B2 *730:10 3.01743e-06
9 *1199:B2 *730:16 6.50827e-06
10 *415:9 *730:16 7.14654e-06
11 *480:14 *730:10 0
*RES
1 *1487:Q *730:10 20.1071 
2 *730:10 *730:16 17.7143 
3 *730:10 *1000:A 10 
*END

*D_NET *731 0.000336088
*CONN
*I *998:A I *D INV_X1
*I *1096:A2 I *D NAND3_X1
*I *1488:Q O *D DFF_X1
*CAP
1 *998:A 0
2 *1096:A2 4.42233e-05
3 *1488:Q 9.43044e-05
4 *731:12 0.000138528
5 *1098:A *1096:A2 7.14654e-06
6 *1198:A1 *731:12 4.38826e-05
7 *1198:B2 *1096:A2 4.92863e-06
8 *1198:B2 *731:12 3.07441e-06
*RES
1 *1488:Q *731:12 25.6071 
2 *731:12 *1096:A2 20 
3 *731:12 *998:A 5 
*END

*D_NET *732 0.000722054
*CONN
*I *996:A I *D INV_X1
*I *1081:A2 I *D NAND3_X1
*I *1489:Q O *D DFF_X1
*CAP
1 *996:A 0
2 *1081:A2 0.000102847
3 *1489:Q 0.000180919
4 *732:10 0.000283766
5 *1083:A *1081:A2 1.88334e-06
6 *1197:B2 *1081:A2 6.74466e-06
7 *1489:D *1081:A2 4.4596e-05
8 *1489:D *732:10 0
9 *473:41 *1081:A2 9.52084e-05
10 *481:12 *732:10 6.0887e-06
11 *481:63 *732:10 0
*RES
1 *1489:Q *732:10 27.7857 
2 *732:10 *1081:A2 33.0357 
3 *732:10 *996:A 10 
*END

*D_NET *733 0.00044105
*CONN
*I *994:A I *D INV_X1
*I *1490:Q O *D DFF_X1
*CAP
1 *994:A 0.000139661
2 *1490:Q 0.000139661
3 *994:A *1484:CK 3.68926e-05
4 *994:A *1490:CK 4.52304e-06
5 *994:A *833:40 8.21816e-05
6 *301:12 *994:A 3.81304e-05
*RES
1 *1490:Q *994:A 38.7143 
*END

*D_NET *734 0.000394703
*CONN
*I *1329:A3 I *D NAND3_X1
*I *1047:A I *D INV_X1
*I *1491:Q O *D DFF_X1
*CAP
1 *1329:A3 7.14723e-05
2 *1047:A 4.82854e-06
3 *1491:Q 8.12027e-05
4 *734:12 0.000157504
5 *1047:A *833:86 7.72537e-06
6 *734:12 *833:86 3.85541e-05
7 *1491:D *1047:A 3.09143e-06
8 *1491:D *734:12 1.50528e-05
9 *480:40 *1329:A3 0
10 *517:12 *1329:A3 1.52725e-05
*RES
1 *1491:Q *734:12 24.4286 
2 *734:12 *1047:A 5.75 
3 *734:12 *1329:A3 22.1071 
*END

*D_NET *735 0.000391532
*CONN
*I *1154:B2 I *D AOI22_X1
*I *1007:A I *D INV_X1
*I *1476:Q O *D DFF_X1
*CAP
1 *1154:B2 2.26866e-05
2 *1007:A 5.70373e-05
3 *1476:Q 2.61819e-05
4 *735:8 0.000105906
5 *1007:A *1062:B2 1.36515e-05
6 *1007:A *1482:CK 3.74891e-05
7 *1154:B2 *1062:B2 4.32144e-07
8 *1154:A1 *1007:A 5.20238e-07
9 *1154:A1 *735:8 1.48713e-06
10 *1154:B1 *1154:B2 3.83757e-05
11 *476:134 *1007:A 5.48953e-05
12 *476:134 *1154:B2 3.28688e-05
*RES
1 *1476:Q *735:8 12.2857 
2 *735:8 *1007:A 17.3929 
3 *735:8 *1154:B2 13.75 
*END

*D_NET *736 0.000382023
*CONN
*I *1142:B2 I *D AOI22_X1
*I *1005:A I *D INV_X1
*I *1477:Q O *D DFF_X1
*CAP
1 *1142:B2 2.6946e-05
2 *1005:A 1.91627e-05
3 *1477:Q 8.20293e-05
4 *736:12 0.000128138
5 *1142:B2 *1477:CK 3.82997e-06
6 *1142:A1 *736:12 0
7 *1211:B2 *1142:B2 3.28688e-05
8 *363:80 *736:12 3.73508e-05
9 *365:95 *1142:B2 4.66361e-05
10 *365:99 *1142:B2 2.75346e-06
11 *444:8 *736:12 2.30746e-06
*RES
1 *1477:Q *736:12 18.8214 
2 *736:12 *1005:A 11.6071 
3 *736:12 *1142:B2 14.75 
*END

*D_NET *737 0.000241528
*CONN
*I *1127:B2 I *D AOI22_X1
*I *1003:A I *D INV_X1
*I *1478:Q O *D DFF_X1
*CAP
1 *1127:B2 0
2 *1003:A 3.56345e-05
3 *1478:Q 5.12388e-05
4 *737:12 8.68733e-05
5 *1003:A *1477:CK 6.18822e-06
6 *737:12 *1477:CK 1.4491e-05
7 *1127:A1 *1003:A 2.00057e-05
8 *1127:A1 *737:12 2.1479e-06
9 *363:90 *1003:A 3.23723e-07
10 *365:99 *1003:A 1.21774e-06
11 *365:99 *737:12 1.51469e-05
12 *484:76 *1003:A 8.26038e-06
13 *484:97 *1003:A 0
*RES
1 *1478:Q *737:12 21.0357 
2 *737:12 *1003:A 19.4643 
3 *737:12 *1127:B2 5 
*END

*D_NET *738 0.000410521
*CONN
*I *1112:B2 I *D AOI22_X1
*I *1001:A I *D INV_X1
*I *1479:Q O *D DFF_X1
*CAP
1 *1112:B2 4.72412e-05
2 *1001:A 3.56506e-05
3 *1479:Q 4.67293e-05
4 *738:8 0.000129621
5 *1001:A *832:47 3.90865e-05
6 *1112:B2 *832:38 2.56379e-05
7 *1112:B2 *832:47 4.87096e-06
8 *365:79 *1001:A 1.4491e-05
9 *365:79 *1112:B2 6.63495e-05
10 *365:87 *1112:B2 8.43215e-07
*RES
1 *1479:Q *738:8 14.3214 
2 *738:8 *1001:A 14.6786 
3 *738:8 *1112:B2 17.6786 
*END

*D_NET *739 0.000260613
*CONN
*I *1097:B2 I *D AOI22_X1
*I *999:A I *D INV_X1
*I *1480:Q O *D DFF_X1
*CAP
1 *1097:B2 0
2 *999:A 2.14263e-05
3 *1480:Q 5.16737e-05
4 *739:12 7.30999e-05
5 *363:57 *739:12 1.75851e-05
6 *365:73 *739:12 4.38852e-05
7 *365:79 *739:12 2.39679e-06
8 *474:275 *999:A 2.30629e-05
9 *474:275 *739:12 1.045e-05
10 *483:18 *999:A 1.70336e-05
*RES
1 *1480:Q *739:12 16.7857 
2 *739:12 *999:A 12.9643 
3 *739:12 *1097:B2 10 
*END

*D_NET *740 0.000493128
*CONN
*I *1082:B2 I *D AOI22_X1
*I *997:A I *D INV_X1
*I *1481:Q O *D DFF_X1
*CAP
1 *1082:B2 7.91036e-05
2 *997:A 1.9166e-05
3 *1481:Q 7.24482e-05
4 *740:10 0.000170718
5 *363:72 *740:10 7.87811e-06
6 *365:87 *1082:B2 9.4788e-05
7 *365:87 *740:10 6.07323e-06
8 *365:89 *1082:B2 2.75346e-06
9 *483:32 *1082:B2 1.23609e-05
10 *483:44 *1082:B2 0
11 *484:50 *1082:B2 2.78392e-05
*RES
1 *1481:Q *740:10 17.3929 
2 *740:10 *997:A 11.6071 
3 *740:10 *1082:B2 21.4286 
*END

*D_NET *741 0.00059969
*CONN
*I *1062:B2 I *D AOI22_X1
*I *995:A I *D INV_X1
*I *1482:Q O *D DFF_X1
*CAP
1 *1062:B2 0.000121947
2 *995:A 7.21695e-05
3 *1482:Q 3.7092e-05
4 *741:10 0.000231209
5 *995:A *1482:CK 5.01331e-06
6 *1062:B2 *1482:CK 1.07733e-05
7 *1062:B2 *830:86 2.6197e-05
8 *1007:A *1062:B2 1.36515e-05
9 *1154:A1 *741:10 0
10 *1154:B1 *1062:B2 1.30948e-05
11 *1154:B2 *1062:B2 4.32144e-07
12 *1206:B2 *995:A 2.03464e-05
13 *365:114 *1062:B2 7.16188e-07
14 *476:134 *995:A 1.49822e-05
15 *476:134 *1062:B2 2.98252e-05
16 *476:142 *741:10 2.2406e-06
*RES
1 *1482:Q *741:10 18.6429 
2 *741:10 *995:A 14.0357 
3 *741:10 *1062:B2 20.8571 
*END

*D_NET *742 0.000366609
*CONN
*I *1048:A I *D INV_X1
*I *1330:B2 I *D AOI22_X1
*I *1483:Q O *D DFF_X1
*CAP
1 *1048:A 5.6158e-06
2 *1330:B2 4.27679e-05
3 *1483:Q 7.83191e-05
4 *742:12 0.000126703
5 *1048:A *829:12 1.87369e-06
6 *1330:B2 *829:12 2.37615e-05
7 *1352:A1 *742:12 1.72426e-05
8 *363:74 *742:12 4.4596e-05
9 *365:89 *1048:A 2.52965e-06
10 *365:89 *1330:B2 2.1982e-05
11 *365:95 *1330:B2 1.21774e-06
*RES
1 *1483:Q *742:12 23.5714 
2 *742:12 *1330:B2 11.1786 
3 *742:12 *1048:A 5.75 
*END

*D_NET *743 0.000320751
*CONN
*I *1156:A1 I *D AOI22_X1
*I *992:A I *D INV_X1
*I *1468:Q O *D DFF_X1
*CAP
1 *1156:A1 8.71307e-06
2 *992:A 7.9023e-05
3 *1468:Q 3.25505e-05
4 *743:6 0.000120287
5 *992:A *979:A 6.50827e-06
6 *992:A *767:10 2.09841e-05
7 *1444:D *992:A 0
8 *1468:D *992:A 1.91498e-06
9 *1468:D *743:6 0
10 *363:37 *992:A 1.5896e-05
11 *365:46 *992:A 2.11846e-05
12 *383:10 *992:A 1.36901e-05
*RES
1 *1468:Q *743:6 8.25 
2 *743:6 *992:A 25.1429 
3 *743:6 *1156:A1 5.92857 
*END

*D_NET *744 0.00033686
*CONN
*I *1139:A1 I *D AOI22_X1
*I *990:A I *D INV_X1
*I *1469:Q O *D DFF_X1
*CAP
1 *1139:A1 4.86407e-05
2 *990:A 1.70808e-05
3 *1469:Q 3.82861e-05
4 *744:8 0.000104008
5 *990:A *977:A 3.07768e-05
6 *990:A *1139:B2 2.54476e-05
7 *1139:A1 *1139:B2 4.26902e-05
8 *744:8 *1139:B2 6.48216e-07
9 *744:8 *768:8 1.5896e-05
10 *1221:B2 *990:A 4.12911e-06
11 *363:20 *1139:A1 1.87369e-06
12 *363:29 *1139:A1 1.21774e-06
13 *365:26 *1139:A1 2.39679e-06
14 *365:26 *744:8 0
15 *365:32 *1139:A1 2.24822e-06
16 *441:10 *1139:A1 1.52083e-06
17 *487:57 *744:8 0
*RES
1 *1469:Q *744:8 14.25 
2 *744:8 *990:A 12.9643 
3 *744:8 *1139:A1 15.0714 
*END

*D_NET *745 0.00052362
*CONN
*I *1124:A1 I *D AOI22_X1
*I *988:A I *D INV_X1
*I *1470:Q O *D DFF_X1
*CAP
1 *1124:A1 6.00802e-05
2 *988:A 2.1369e-05
3 *1470:Q 7.48392e-05
4 *745:8 0.000156288
5 *988:A *975:A 4.30753e-05
6 *988:A *1124:B2 1.72426e-05
7 *1124:A1 *1124:B2 2.54476e-05
8 *745:8 *769:10 4.4596e-05
9 *1247:B2 *745:8 0
10 *1446:D *745:8 0
11 *363:16 *1124:A1 1.83288e-05
12 *365:20 *1124:A1 4.45934e-05
13 *365:20 *745:8 1.75677e-05
14 *397:10 *1124:A1 1.91667e-07
15 *476:24 *1124:A1 0
*RES
1 *1470:Q *745:8 19.25 
2 *745:8 *988:A 12.9643 
3 *745:8 *1124:A1 17.8929 
*END

*D_NET *746 0.000503423
*CONN
*I *1107:A1 I *D AOI22_X1
*I *986:A I *D INV_X1
*I *1471:Q O *D DFF_X1
*CAP
1 *1107:A1 5.11409e-05
2 *986:A 1.5523e-05
3 *1471:Q 7.87782e-05
4 *746:8 0.000145442
5 *986:A *973:A 3.02351e-05
6 *986:A *1107:B2 3.02372e-05
7 *1107:A1 *1107:B2 2.54476e-05
8 *746:8 *770:8 1.75851e-05
9 *1219:B1 *746:8 0
10 *363:29 *1107:A1 4.45934e-05
11 *365:32 *1107:A1 1.83288e-05
12 *365:32 *746:8 2.05195e-05
13 *365:38 *1107:A1 0
14 *493:89 *986:A 1.16067e-05
15 *493:89 *1107:A1 1.39858e-05
*RES
1 *1471:Q *746:8 19.25 
2 *746:8 *986:A 12.9643 
3 *746:8 *1107:A1 17.8929 
*END

*D_NET *747 0.000488071
*CONN
*I *1092:A1 I *D AOI22_X1
*I *984:A I *D INV_X1
*I *1472:Q O *D DFF_X1
*CAP
1 *1092:A1 8.0356e-05
2 *984:A 3.54403e-05
3 *1472:Q 6.94476e-05
4 *747:8 0.000185244
5 *984:A *971:A 0
6 *984:A *1092:B2 0
7 *1092:A1 *1092:B2 1.25215e-05
8 *747:8 *1092:B2 1.53342e-05
9 *1245:A1 *984:A 4.87937e-06
10 *363:16 *1092:A1 2.75346e-06
11 *365:20 *1092:A1 3.09143e-06
12 *427:12 *1092:A1 2.47331e-05
13 *427:12 *747:8 0
14 *474:60 *984:A 6.44194e-06
15 *474:60 *1092:A1 1.01343e-05
16 *476:47 *747:8 3.76934e-05
*RES
1 *1472:Q *747:8 18.75 
2 *747:8 *984:A 13.6429 
3 *747:8 *1092:A1 19.8929 
*END

*D_NET *748 0.000449076
*CONN
*I *1077:A1 I *D AOI22_X1
*I *982:A I *D INV_X1
*I *1473:Q O *D DFF_X1
*CAP
1 *1077:A1 4.08076e-05
2 *982:A 3.35317e-05
3 *1473:Q 0.000110829
4 *748:8 0.000185168
5 *982:A *969:A 0
6 *982:A *1077:B2 0
7 *1077:A1 *1077:B2 0
8 *748:8 *1077:B2 1.77697e-05
9 *748:8 *772:12 3.39171e-05
10 *1217:B2 *982:A 3.09682e-06
11 *365:22 *748:8 2.03034e-05
12 *487:44 *982:A 3.65322e-06
13 *487:44 *748:8 0
*RES
1 *1473:Q *748:8 23.25 
2 *748:8 *982:A 13.7143 
3 *748:8 *1077:A1 13.6429 
*END

*D_NET *749 0.000520536
*CONN
*I *980:A I *D INV_X1
*I *1066:A1 I *D AOI22_X1
*I *1474:Q O *D DFF_X1
*CAP
1 *980:A 3.7456e-05
2 *1066:A1 1.49896e-05
3 *1474:Q 0.000141727
4 *749:8 0.000194172
5 *980:A *839:102 2.52965e-06
6 *1066:A1 *1066:B2 6.48216e-07
7 *749:8 *1066:B2 1.87512e-05
8 *749:8 *1474:CK 0
9 *749:8 *839:102 0
10 *1474:D *980:A 1.40196e-06
11 *365:12 *980:A 3.02351e-05
12 *365:16 *980:A 6.7642e-05
13 *474:60 *980:A 1.09827e-05
*RES
1 *1474:Q *749:8 19.6786 
2 *749:8 *1066:A1 6.25 
3 *749:8 *980:A 20.75 
*END

*D_NET *750 0.000305365
*CONN
*I *1325:A1 I *D AOI22_X1
*I *1045:A I *D INV_X1
*I *1475:Q O *D DFF_X1
*CAP
1 *1325:A1 4.57778e-05
2 *1045:A 7.54584e-05
3 *1475:Q 0
4 *750:6 0.000121236
5 *1351:A1 *1045:A 2.25658e-05
6 *363:33 *1045:A 0
7 *363:37 *1325:A1 3.35796e-05
8 *363:44 *1325:A1 0
9 *365:46 *1045:A 6.74733e-06
*RES
1 *1475:Q *750:6 10 
2 *750:6 *1045:A 17.3929 
3 *750:6 *1325:A1 14.8571 
*END

*D_NET *751 9.63488e-05
*CONN
*I *993:A I *D INV_X1
*I *1460:Q O *D DFF_X1
*CAP
1 *993:A 4.81744e-05
2 *1460:Q 4.81744e-05
3 *1460:D *993:A 0
*RES
1 *1460:Q *993:A 14.6786 
*END

*D_NET *752 0.000124757
*CONN
*I *991:A I *D INV_X1
*I *1461:Q O *D DFF_X1
*CAP
1 *991:A 5.93398e-05
2 *1461:Q 5.93398e-05
3 *991:A *823:142 6.07779e-06
4 *1461:D *991:A 0
5 *489:70 *991:A 0
*RES
1 *1461:Q *991:A 15.8571 
*END

*D_NET *753 0.000250159
*CONN
*I *989:A I *D INV_X1
*I *1462:Q O *D DFF_X1
*CAP
1 *989:A 0.000125079
2 *1462:Q 0.000125079
3 *989:A *840:39 0
4 *989:A *840:75 0
5 *1125:A *989:A 0
*RES
1 *1462:Q *989:A 22.2143 
*END

*D_NET *754 0.000114427
*CONN
*I *987:A I *D INV_X1
*I *1463:Q O *D DFF_X1
*CAP
1 *987:A 5.21031e-05
2 *1463:Q 5.21031e-05
3 *987:A *823:129 1.0221e-05
4 *1463:D *987:A 0
*RES
1 *1463:Q *987:A 15.3571 
*END

*D_NET *755 0.000116462
*CONN
*I *985:A I *D INV_X1
*I *1464:Q O *D DFF_X1
*CAP
1 *985:A 3.90432e-05
2 *1464:Q 3.90432e-05
3 *985:A *827:12 3.83757e-05
*RES
1 *1464:Q *985:A 14.6786 
*END

*D_NET *756 0.000196016
*CONN
*I *983:A I *D INV_X1
*I *1465:Q O *D DFF_X1
*CAP
1 *983:A 5.63305e-05
2 *1465:Q 5.63305e-05
3 *1226:A1 *983:A 6.02248e-05
4 *1226:B2 *983:A 3.26949e-06
5 *1457:D *983:A 7.19036e-06
6 *473:207 *983:A 0
7 *491:26 *983:A 1.26699e-05
*RES
1 *1465:Q *983:A 26.9643 
*END

*D_NET *757 9.73799e-05
*CONN
*I *981:A I *D INV_X1
*I *1466:Q O *D DFF_X1
*CAP
1 *981:A 4.04624e-05
2 *1466:Q 4.04624e-05
3 *981:A *827:23 1.64551e-05
*RES
1 *1466:Q *981:A 14.6786 
*END

*D_NET *758 0.00025272
*CONN
*I *1046:A I *D INV_X1
*I *1467:Q O *D DFF_X1
*CAP
1 *1046:A 0.000107935
2 *1467:Q 0.000107935
3 *1046:A *1326:C2 8.68718e-06
4 *353:8 *1046:A 6.99525e-06
5 *513:16 *1046:A 2.11673e-05
*RES
1 *1467:Q *1046:A 31.7143 
*END

*D_NET *759 0.000166949
*CONN
*I *978:A I *D INV_X1
*I *1452:Q O *D DFF_X1
*CAP
1 *978:A 8.34743e-05
2 *1452:Q 8.34743e-05
3 *978:A *851:42 0
4 *1452:D *978:A 0
5 *285:10 *978:A 0
6 *458:12 *978:A 0
*RES
1 *1452:Q *978:A 28.0714 
*END

*D_NET *760 0.000171736
*CONN
*I *976:A I *D INV_X1
*I *1453:Q O *D DFF_X1
*CAP
1 *976:A 8.33839e-05
2 *1453:Q 8.33839e-05
3 *1237:B1 *976:A 4.9678e-06
4 *491:73 *976:A 0
*RES
1 *1453:Q *976:A 18.5714 
*END

*D_NET *761 0.000193388
*CONN
*I *974:A I *D INV_X1
*I *1454:Q O *D DFF_X1
*CAP
1 *974:A 7.47516e-05
2 *1454:Q 7.47516e-05
3 *974:A *1452:CK 4.38852e-05
4 *974:A *851:40 0
*RES
1 *1454:Q *974:A 18.5714 
*END

*D_NET *762 0.00038804
*CONN
*I *1106:A2 I *D NAND3_X1
*I *972:A I *D INV_X1
*I *1455:Q O *D DFF_X1
*CAP
1 *1106:A2 8.67049e-05
2 *972:A 1.84083e-05
3 *1455:Q 6.99861e-05
4 *762:10 0.000175099
5 *972:A *1106:A3 6.66374e-06
6 *1106:A2 *1106:A3 7.61646e-06
7 *1106:A2 *823:129 0
8 *1106:A2 *851:42 0
9 *762:10 *1106:A3 1.33585e-05
10 *762:10 *851:42 6.07323e-06
11 *1108:A *1106:A2 0
12 *1118:B2 *1106:A2 0
13 *1237:B2 *972:A 4.12911e-06
*RES
1 *1455:Q *762:10 18.0714 
2 *762:10 *972:A 12.2857 
3 *762:10 *1106:A2 19.6071 
*END

*D_NET *763 0.000398362
*CONN
*I *970:A I *D INV_X1
*I *1091:A2 I *D NAND3_X1
*I *1456:Q O *D DFF_X1
*CAP
1 *970:A 0
2 *1091:A2 3.09898e-05
3 *1456:Q 0.000124674
4 *763:12 0.000155664
5 *763:12 *1233:A1 1.32323e-05
6 *1093:A *1091:A2 1.11168e-06
7 *1234:B1 *763:12 0
8 *1236:B2 *763:12 1.25127e-05
9 *489:54 *1091:A2 1.32167e-05
10 *489:54 *763:12 2.38596e-05
11 *491:10 *763:12 2.31008e-05
*RES
1 *1456:Q *763:12 24.1429 
2 *763:12 *1091:A2 13.6429 
3 *763:12 *970:A 10 
*END

*D_NET *764 0.000288825
*CONN
*I *1076:A2 I *D NAND3_X1
*I *968:A I *D INV_X1
*I *1457:Q O *D DFF_X1
*CAP
1 *1076:A2 0
2 *968:A 4.18802e-05
3 *1457:Q 9.28796e-05
4 *764:12 0.00013476
5 *764:12 *828:60 0
6 *764:12 *828:69 0
7 *1078:A *764:12 0
8 *1226:A1 *968:A 1.32323e-05
9 *1457:D *968:A 6.07323e-06
10 *491:26 *764:12 0
*RES
1 *1457:Q *764:12 24.25 
2 *764:12 *968:A 9.75 
3 *764:12 *1076:A2 5 
*END

*D_NET *765 0.000482384
*CONN
*I *966:A I *D INV_X1
*I *1065:A2 I *D NAND3_X1
*I *1458:Q O *D DFF_X1
*CAP
1 *966:A 3.06028e-05
2 *1065:A2 4.83174e-05
3 *1458:Q 0.000103912
4 *765:10 0.000182832
5 *1065:A2 *1065:A3 2.75346e-06
6 *1065:A2 *827:65 5.56848e-05
7 *765:10 *827:65 5.82813e-05
8 *1234:B2 *765:10 0
9 *441:26 *765:10 0
*RES
1 *1458:Q *765:10 22.4286 
2 *765:10 *1065:A2 15.7143 
3 *765:10 *966:A 13.25 
*END

*D_NET *766 0.000386119
*CONN
*I *1043:A I *D INV_X1
*I *1324:A3 I *D NAND3_X1
*I *1459:Q O *D DFF_X1
*CAP
1 *1043:A 0
2 *1324:A3 5.57472e-05
3 *1459:Q 6.91044e-05
4 *766:12 0.000124852
5 *1326:C1 *1324:A3 2.86475e-06
6 *1349:A1 *1324:A3 3.12145e-06
7 *1349:A1 *766:12 0
8 *1350:A1 *1324:A3 5.06552e-05
9 *1350:A1 *766:12 3.66923e-05
10 *1467:D *1324:A3 1.36363e-05
11 *513:16 *1324:A3 2.94455e-05
*RES
1 *1459:Q *766:12 23.0714 
2 *766:12 *1324:A3 22.6071 
3 *766:12 *1043:A 5 
*END

*D_NET *767 0.000390245
*CONN
*I *1156:B2 I *D AOI22_X1
*I *979:A I *D INV_X1
*I *1444:Q O *D DFF_X1
*CAP
1 *1156:B2 1.62216e-05
2 *979:A 3.8823e-05
3 *1444:Q 6.52718e-05
4 *767:10 0.000120316
5 *992:A *979:A 6.50827e-06
6 *992:A *767:10 2.09841e-05
7 *1249:B2 *979:A 3.49085e-06
8 *1468:D *979:A 1.03979e-05
9 *363:37 *767:10 1.23913e-05
10 *365:46 *1156:B2 1.98725e-05
11 *365:46 *767:10 7.4533e-05
12 *383:10 *979:A 1.43476e-06
*RES
1 *1444:Q *767:10 18.8571 
2 *767:10 *979:A 15.2143 
3 *767:10 *1156:B2 13.1786 
*END

*D_NET *768 0.0004559
*CONN
*I *1139:B2 I *D AOI22_X1
*I *977:A I *D INV_X1
*I *1445:Q O *D DFF_X1
*CAP
1 *1139:B2 3.36918e-05
2 *977:A 4.05049e-05
3 *1445:Q 7.70581e-05
4 *768:8 0.000151255
5 *977:A *837:16 0
6 *977:A *837:20 8.26038e-06
7 *1139:B2 *837:16 0
8 *990:A *977:A 3.07768e-05
9 *990:A *1139:B2 2.54476e-05
10 *1139:A1 *1139:B2 4.26902e-05
11 *1221:B2 *977:A 7.47756e-06
12 *1469:D *977:A 0
13 *365:26 *1139:B2 1.68643e-06
14 *365:26 *768:8 0
15 *365:32 *1139:B2 2.39679e-06
16 *487:57 *977:A 3.09143e-06
17 *487:57 *768:8 1.50189e-05
18 *744:8 *1139:B2 6.48216e-07
19 *744:8 *768:8 1.5896e-05
*RES
1 *1445:Q *768:8 18.75 
2 *768:8 *977:A 15.0714 
3 *768:8 *1139:B2 14.3929 
*END

*D_NET *769 0.000442198
*CONN
*I *1124:B2 I *D AOI22_X1
*I *975:A I *D INV_X1
*I *1446:Q O *D DFF_X1
*CAP
1 *1124:B2 5.16288e-05
2 *975:A 4.73348e-05
3 *1446:Q 4.31626e-05
4 *769:10 0.000142126
5 *975:A *839:35 8.26038e-06
6 *769:10 *839:35 0
7 *988:A *975:A 4.30753e-05
8 *988:A *1124:B2 1.72426e-05
9 *1124:A1 *1124:B2 2.54476e-05
10 *1220:B2 *1124:B2 0
11 *1247:B2 *769:10 0
12 *1470:D *975:A 0
13 *365:20 *1124:B2 1.69265e-05
14 *365:22 *1124:B2 2.39679e-06
15 *476:24 *975:A 0
16 *476:24 *1124:B2 0
17 *745:8 *769:10 4.4596e-05
*RES
1 *1446:Q *769:10 15.6786 
2 *769:10 *975:A 15.75 
3 *769:10 *1124:B2 16.5357 
*END

*D_NET *770 0.000428562
*CONN
*I *1107:B2 I *D AOI22_X1
*I *973:A I *D INV_X1
*I *1447:Q O *D DFF_X1
*CAP
1 *1107:B2 5.29051e-05
2 *973:A 3.73609e-05
3 *1447:Q 4.25072e-05
4 *770:8 0.000132773
5 *986:A *973:A 3.02351e-05
6 *986:A *1107:B2 3.02372e-05
7 *1107:A1 *1107:B2 2.54476e-05
8 *1219:B1 *1107:B2 0
9 *1219:B1 *770:8 0
10 *1219:B2 *1107:B2 0
11 *1246:B2 *973:A 2.84765e-06
12 *1471:D *973:A 0
13 *365:32 *1107:B2 4.184e-05
14 *365:38 *1107:B2 2.75346e-06
15 *493:89 *973:A 1.20697e-05
16 *746:8 *770:8 1.75851e-05
*RES
1 *1447:Q *770:8 14.75 
2 *770:8 *973:A 15.0714 
3 *770:8 *1107:B2 17.2143 
*END

*D_NET *771 0.000453739
*CONN
*I *1092:B2 I *D AOI22_X1
*I *971:A I *D INV_X1
*I *1448:Q O *D DFF_X1
*CAP
1 *1092:B2 0.000105208
2 *971:A 9.2539e-05
3 *1448:Q 0
4 *771:6 0.000197747
5 *971:A *839:57 1.64551e-05
6 *984:A *971:A 0
7 *984:A *1092:B2 0
8 *1092:A1 *1092:B2 1.25215e-05
9 *1218:A1 *971:A 0
10 *1218:B2 *971:A 0
11 *365:20 *1092:B2 2.75346e-06
12 *427:12 *1092:B2 0
13 *476:47 *1092:B2 1.11799e-05
14 *747:8 *1092:B2 1.53342e-05
*RES
1 *1448:Q *771:6 10 
2 *771:6 *971:A 19.4286 
3 *771:6 *1092:B2 21.5357 
*END

*D_NET *772 0.000384276
*CONN
*I *1077:B2 I *D AOI22_X1
*I *969:A I *D INV_X1
*I *1449:Q O *D DFF_X1
*CAP
1 *1077:B2 5.29619e-05
2 *969:A 2.72081e-05
3 *1449:Q 4.79309e-05
4 *772:12 0.000128101
5 *969:A *839:22 1.55581e-05
6 *1077:B2 *839:22 7.94852e-06
7 *982:A *969:A 0
8 *982:A *1077:B2 0
9 *1077:A1 *1077:B2 0
10 *1244:B2 *969:A 3.49085e-06
11 *365:22 *1077:B2 4.66361e-05
12 *365:26 *1077:B2 2.75346e-06
13 *487:44 *772:12 0
14 *748:8 *1077:B2 1.77697e-05
15 *748:8 *772:12 3.39171e-05
*RES
1 *1449:Q *772:12 15.4286 
2 *772:12 *969:A 13.6429 
3 *772:12 *1077:B2 17.0357 
*END

*D_NET *773 0.000399951
*CONN
*I *1066:B2 I *D AOI22_X1
*I *967:A I *D INV_X1
*I *1450:Q O *D DFF_X1
*CAP
1 *1066:B2 7.36302e-05
2 *967:A 7.66468e-05
3 *1450:Q 1.03976e-05
4 *773:8 0.000160675
5 *967:A *839:102 5.11574e-06
6 *967:A *839:104 0
7 *967:A *839:126 0
8 *1066:B2 *839:102 3.81909e-05
9 *773:8 *839:126 0
10 *1066:A1 *1066:B2 6.48216e-07
11 *1243:B2 *967:A 0
12 *1474:D *967:A 1.5896e-05
13 *749:8 *1066:B2 1.87512e-05
*RES
1 *1450:Q *773:8 10.9286 
2 *773:8 *967:A 18.0714 
3 *773:8 *1066:B2 19.25 
*END

*D_NET *774 0.000441072
*CONN
*I *1044:A I *D INV_X1
*I *1325:B2 I *D AOI22_X1
*I *1451:Q O *D DFF_X1
*CAP
1 *1044:A 5.18746e-05
2 *1325:B2 7.2552e-05
3 *1451:Q 2.26108e-05
4 *774:6 0.000147037
5 *1044:A *1475:CK 7.72792e-06
6 *1325:B1 *1325:B2 2.39679e-06
7 *1348:A1 *1044:A 1.72426e-05
8 *1351:A1 *1044:A 6.48216e-07
9 *363:37 *1325:B2 4.60303e-05
10 *363:37 *774:6 1.34605e-05
11 *365:46 *1325:B2 4.68735e-05
12 *365:46 *774:6 1.26173e-05
*RES
1 *1451:Q *774:6 8.25 
2 *774:6 *1325:B2 15.75 
3 *774:6 *1044:A 20.0714 
*END

*D_NET *775 0.000671224
*CONN
*I *1152:A1 I *D AOI22_X1
*I *964:A I *D INV_X1
*I *1436:Q O *D DFF_X1
*CAP
1 *1152:A1 0.000163169
2 *964:A 2.4244e-05
3 *1436:Q 6.5801e-05
4 *775:10 0.000253214
5 *964:A *1436:CK 1.97902e-05
6 *1152:A1 *1436:CK 7.19036e-06
7 *1152:A1 *825:55 0
8 *1152:A1 *825:59 0
9 *775:10 *1436:CK 9.07146e-05
10 *1259:B2 *1152:A1 1.13319e-05
11 *1436:D *964:A 3.65322e-06
12 *1436:D *1152:A1 0
13 *453:10 *1152:A1 8.33759e-07
14 *496:61 *1152:A1 0
15 *501:86 *1152:A1 0
16 *501:86 *775:10 7.87811e-06
17 *502:31 *1152:A1 4.88675e-06
18 *521:22 *964:A 1.27522e-06
19 *679:10 *964:A 1.72426e-05
*RES
1 *1436:Q *775:10 18.75 
2 *775:10 *964:A 13.0357 
3 *775:10 *1152:A1 36.25 
*END

*D_NET *776 0.000580473
*CONN
*I *1145:A1 I *D AOI22_X1
*I *962:A I *D INV_X1
*I *1437:Q O *D DFF_X1
*CAP
1 *1145:A1 8.13906e-05
2 *962:A 7.19346e-06
3 *1437:Q 8.4293e-05
4 *776:10 0.000172877
5 *1145:A1 *1145:A2 4.4061e-05
6 *1145:A1 *1413:CK 2.07643e-05
7 *776:10 *1413:CK 0
8 *1145:B2 *1145:A1 0
9 *1256:B1 *776:10 3.12109e-05
10 *1258:B1 *962:A 6.99525e-06
11 *1258:B1 *776:10 4.43868e-06
12 *1258:B2 *776:10 0
13 *496:71 *1145:A1 0.00011788
14 *496:71 *776:10 0
15 *501:39 *1145:A1 9.36841e-06
16 *680:10 *962:A 0
17 *680:10 *776:10 0
*RES
1 *1437:Q *776:10 19.25 
2 *776:10 *962:A 10.9286 
3 *776:10 *1145:A1 23.6071 
*END

*D_NET *777 0.000506137
*CONN
*I *1130:A1 I *D AOI22_X1
*I *960:A I *D INV_X1
*I *1438:Q O *D DFF_X1
*CAP
1 *1130:A1 0.00011388
2 *960:A 8.71307e-06
3 *1438:Q 6.59973e-05
4 *777:12 0.00018859
5 *960:A *844:65 0
6 *1130:A1 *825:34 3.04651e-05
7 *1130:A1 *826:61 1.36786e-05
8 *1130:A1 *844:52 1.12784e-05
9 *1130:A1 *844:65 4.38826e-05
10 *777:12 *844:52 0
11 *1257:B2 *777:12 0
12 *1284:A2 *777:12 2.6099e-05
13 *681:10 *1130:A1 3.55212e-06
*RES
1 *1438:Q *777:12 22.3929 
2 *777:12 *960:A 5.92857 
3 *777:12 *1130:A1 28.3929 
*END

*D_NET *778 0.000597979
*CONN
*I *958:A I *D INV_X1
*I *1115:A1 I *D AOI22_X1
*I *1439:Q O *D DFF_X1
*CAP
1 *958:A 0
2 *1115:A1 0.000119745
3 *1439:Q 0.00015727
4 *778:12 0.000277015
5 *1115:A1 *1415:CK 2.13261e-05
6 *1115:A1 *825:82 0
7 *778:12 *842:86 1.06765e-05
8 *945:A *1115:A1 3.23723e-07
9 *1115:B2 *1115:A1 1.16231e-05
10 *682:10 *778:12 0
*RES
1 *1439:Q *778:12 31.2857 
2 *778:12 *1115:A1 18.2857 
3 *778:12 *958:A 5 
*END

*D_NET *779 0.000526638
*CONN
*I *956:A I *D INV_X1
*I *1100:A1 I *D AOI22_X1
*I *1440:Q O *D DFF_X1
*CAP
1 *956:A 4.974e-05
2 *1100:A1 1.16391e-05
3 *1440:Q 0.000122192
4 *779:10 0.000183571
5 *956:A *1100:A2 2.39679e-06
6 *956:A *844:65 4.67277e-05
7 *1100:A1 *1100:A2 1.64277e-05
8 *779:10 *1440:CK 0
9 *779:10 *844:65 0
10 *779:10 *844:103 0
11 *1440:D *956:A 2.58428e-06
12 *377:18 *1100:A1 1.03927e-05
13 *377:18 *779:10 3.44913e-05
14 *405:10 *956:A 4.15447e-05
15 *683:12 *1100:A1 5.20238e-07
16 *683:12 *779:10 4.41032e-06
*RES
1 *1440:Q *779:10 23.25 
2 *779:10 *1100:A1 11.6071 
3 *779:10 *956:A 17.4286 
*END

*D_NET *780 0.000509325
*CONN
*I *1085:A1 I *D AOI22_X1
*I *954:A I *D INV_X1
*I *1441:Q O *D DFF_X1
*CAP
1 *1085:A1 8.98186e-05
2 *954:A 0
3 *1441:Q 0.000109531
4 *780:12 0.00019935
5 *1085:A1 *1417:CK 6.56185e-06
6 *1085:A1 *1441:CK 2.50004e-05
7 *1085:A1 *844:116 1.88906e-05
8 *780:12 *826:85 0
9 *941:A *1085:A1 4.67774e-06
10 *1085:B2 *1085:A1 4.55118e-06
11 *1254:B2 *780:12 4.12911e-06
12 *391:8 *1085:A1 3.90891e-05
13 *473:89 *1085:A1 7.72537e-06
14 *684:10 *780:12 0
*RES
1 *1441:Q *780:12 25.7857 
2 *780:12 *954:A 5 
3 *780:12 *1085:A1 17.2857 
*END

*D_NET *781 0.000796954
*CONN
*I *952:A I *D INV_X1
*I *1070:A1 I *D AOI22_X1
*I *1442:Q O *D DFF_X1
*CAP
1 *952:A 1.98651e-05
2 *1070:A1 0.000129302
3 *1442:Q 0.000183483
4 *781:12 0.00033265
5 *952:A *844:116 1.09316e-05
6 *1070:A1 *1070:A2 2.75346e-06
7 *1070:A1 *1070:B1 2.43548e-06
8 *1070:A1 *844:116 3.11138e-05
9 *781:12 *1442:CK 0
10 *781:12 *844:116 0
11 *1253:B1 *1070:A1 1.27666e-06
12 *1253:B2 *952:A 1.65015e-06
13 *1253:B2 *1070:A1 4.48034e-05
14 *1253:B2 *781:12 1.72426e-05
15 *1280:A2 *1070:A1 0
16 *1442:D *952:A 5.49592e-06
17 *1442:D *1070:A1 6.22609e-06
18 *377:16 *1070:A1 7.72537e-06
*RES
1 *1442:Q *781:12 33.2857 
2 *781:12 *1070:A1 20.8571 
3 *781:12 *952:A 7.75 
*END

*D_NET *782 0.000571001
*CONN
*I *1333:A1 I *D AOI22_X1
*I *1041:A I *D INV_X1
*I *1443:Q O *D DFF_X1
*CAP
1 *1333:A1 7.01212e-05
2 *1041:A 5.69176e-05
3 *1443:Q 5.26509e-05
4 *782:10 0.00017969
5 *1041:A *826:91 6.66211e-05
6 *1041:A *842:103 6.80813e-06
7 *1333:A1 *1333:A2 5.56509e-05
8 *1333:A1 *1333:B1 3.92795e-06
9 *1333:A1 *826:85 4.79358e-06
10 *1333:A1 *826:91 5.43615e-05
11 *782:10 *1333:B1 0
12 *1254:B1 *1333:A1 0
13 *521:20 *1041:A 1.75851e-05
14 *521:20 *1333:A1 1.87369e-06
*RES
1 *1443:Q *782:10 20 
2 *782:10 *1041:A 14.1071 
3 *782:10 *1333:A1 24.3929 
*END

*D_NET *783 0.000281567
*CONN
*I *965:A I *D INV_X1
*I *1428:Q O *D DFF_X1
*CAP
1 *965:A 0.000140676
2 *1428:Q 0.000140676
3 *1268:A2 *965:A 2.16072e-07
4 *1428:D *965:A 0
5 *498:38 *965:A 0
*RES
1 *1428:Q *965:A 34.25 
*END

*D_NET *784 0.000216098
*CONN
*I *963:A I *D INV_X1
*I *1429:Q O *D DFF_X1
*CAP
1 *963:A 8.0257e-05
2 *1429:Q 8.0257e-05
3 *963:A *842:36 1.45878e-05
4 *1265:A2 *963:A 0
5 *270:10 *963:A 2.61812e-06
6 *497:19 *963:A 3.83783e-05
*RES
1 *1429:Q *963:A 29.4286 
*END

*D_NET *785 0.00021782
*CONN
*I *961:A I *D INV_X1
*I *1430:Q O *D DFF_X1
*CAP
1 *961:A 8.42404e-05
2 *1430:Q 8.42404e-05
3 *961:A *1430:CK 1.88334e-06
4 *961:A *1433:CK 1.53342e-05
5 *961:A *844:10 0
6 *961:A *844:21 0
7 *961:A *844:34 0
8 *1266:A1 *961:A 0
9 *268:8 *961:A 0
10 *497:38 *961:A 1.65202e-06
11 *497:51 *961:A 2.39679e-06
12 *498:38 *961:A 2.80727e-05
*RES
1 *1430:Q *961:A 29.4286 
*END

*D_NET *786 0.000191782
*CONN
*I *959:A I *D INV_X1
*I *1431:Q O *D DFF_X1
*CAP
1 *959:A 7.63478e-05
2 *1431:Q 7.63478e-05
3 *959:A *1431:CK 3.90865e-05
*RES
1 *1431:Q *959:A 18.75 
*END

*D_NET *787 0.000195523
*CONN
*I *957:A I *D INV_X1
*I *1432:Q O *D DFF_X1
*CAP
1 *957:A 7.14886e-05
2 *1432:Q 7.14886e-05
3 *957:A *953:A 0
4 *957:A *844:71 3.60147e-05
5 *1264:A1 *957:A 3.19164e-07
6 *1264:A2 *957:A 7.16188e-07
7 *1432:D *957:A 0
8 *474:140 *957:A 1.5496e-05
*RES
1 *1432:Q *957:A 28.75 
*END

*D_NET *788 0.000308887
*CONN
*I *955:A I *D INV_X1
*I *1433:Q O *D DFF_X1
*CAP
1 *955:A 0.000117751
2 *1433:Q 0.000117751
3 *955:A *1433:CK 3.64341e-05
4 *262:10 *955:A 3.69514e-05
5 *391:10 *955:A 0
*RES
1 *1433:Q *955:A 33.5714 
*END

*D_NET *789 0.000532424
*CONN
*I *953:A I *D INV_X1
*I *1434:Q O *D DFF_X1
*CAP
1 *953:A 0.000211178
2 *1434:Q 0.000211178
3 *953:A *1261:A1 4.4061e-05
4 *953:A *1434:CK 0
5 *953:A *826:36 3.01997e-05
6 *953:A *827:238 7.19036e-06
7 *957:A *953:A 0
8 *1264:A2 *953:A 7.66204e-06
9 *377:18 *953:A 2.09547e-05
10 *405:10 *953:A 0
11 *474:140 *953:A 0
*RES
1 *1434:Q *953:A 44 
*END

*D_NET *790 0.000235364
*CONN
*I *1042:A I *D INV_X1
*I *1435:Q O *D DFF_X1
*CAP
1 *1042:A 7.20635e-05
2 *1435:Q 7.20635e-05
3 *1268:A2 *1042:A 3.09143e-06
4 *349:8 *1042:A 8.72715e-07
5 *453:10 *1042:A 8.22137e-05
6 *497:19 *1042:A 5.05896e-06
7 *521:22 *1042:A 0
*RES
1 *1435:Q *1042:A 28.8214 
*END

*D_NET *823 0.00940347
*CONN
*I *1140:B1 I *D OAI221_X1
*I *1125:B1 I *D OAI221_X1
*I *1157:B1 I *D OAI221_X1
*I *1078:C2 I *D OAI211_X1
*I *1093:C2 I *D OAI211_X1
*I *1067:C2 I *D OAI211_X1
*I *1108:C2 I *D OAI211_X1
*I *1326:C2 I *D OAI211_X1
*I *1113:C2 I *D OAI211_X1
*I *1083:C2 I *D OAI211_X1
*I *1143:C2 I *D OAI211_X1
*I *1128:C2 I *D OAI211_X1
*I *1155:B1 I *D OAI221_X1
*I *1063:B1 I *D OAI221_X1
*I *1331:C2 I *D OAI211_X1
*I *1098:C2 I *D OAI211_X1
*I *1636:Z O *D BUF_X4
*CAP
1 *1140:B1 5.68904e-06
2 *1125:B1 0.000259794
3 *1157:B1 0
4 *1078:C2 4.73676e-05
5 *1093:C2 0
6 *1067:C2 0.000225888
7 *1108:C2 0
8 *1326:C2 0.000265835
9 *1113:C2 0
10 *1083:C2 7.54016e-06
11 *1143:C2 0
12 *1128:C2 5.24053e-05
13 *1155:B1 0.000210581
14 *1063:B1 9.49655e-05
15 *1331:C2 0
16 *1098:C2 0
17 *1636:Z 7.22423e-05
18 *823:187 0.000291764
19 *823:154 0.000573391
20 *823:148 0.0006093
21 *823:142 0.00054627
22 *823:136 0.000475376
23 *823:129 0.00023649
24 *823:114 0.000599657
25 *823:56 0.000398217
26 *823:52 0.00032672
27 *823:46 0.000285374
28 *823:35 0.000313218
29 *823:29 0.000372457
30 *823:25 0.00037021
31 *823:14 0.00033008
32 *823:12 0.000746618
33 *823:8 0.000436414
34 *1078:C2 *828:89 2.91459e-06
35 *1078:C2 *837:10 3.51992e-06
36 *1125:B1 *840:39 0
37 *823:14 *1360:CK 0
38 *823:148 *828:69 7.91183e-05
39 *823:154 *828:69 1.07633e-05
40 *823:154 *828:75 2.51177e-05
41 *987:A *823:129 1.0221e-05
42 *991:A *823:142 6.07779e-06
43 *1011:A *823:29 6.87788e-06
44 *1013:A *823:14 3.83783e-05
45 *1015:A *823:29 0
46 *1017:A *823:52 1.26998e-05
47 *1017:A *823:56 3.51536e-06
48 *1019:A *823:52 4.79658e-06
49 *1046:A *1326:C2 8.68718e-06
50 *1050:A *823:35 6.07323e-06
51 *1063:A *1063:B1 2.84429e-05
52 *1063:B2 *1063:B1 2.75346e-06
53 *1067:A *1067:C2 6.44217e-06
54 *1078:B *1078:C2 6.82202e-07
55 *1078:C1 *1078:C2 2.75346e-06
56 *1083:A *823:35 2.23415e-06
57 *1083:B *823:35 0
58 *1093:A *823:154 1.05232e-05
59 *1093:B *1067:C2 0
60 *1093:C1 *823:154 7.96507e-06
61 *1098:A *823:25 1.34578e-05
62 *1106:A2 *823:129 0
63 *1108:C1 *1326:C2 6.51363e-07
64 *1108:C1 *823:114 2.28957e-06
65 *1108:C1 *823:129 6.05817e-05
66 *1108:C1 *823:136 2.39679e-06
67 *1113:A *823:29 5.44193e-06
68 *1118:B2 *823:114 4.18909e-05
69 *1118:B2 *823:129 2.24822e-06
70 *1125:A *1125:B1 2.75346e-06
71 *1128:A *1128:C2 2.16072e-07
72 *1128:B *1128:C2 1.28122e-06
73 *1128:C1 *1128:C2 3.33849e-05
74 *1128:C1 *823:52 1.46625e-05
75 *1140:A *1140:B1 2.75346e-06
76 *1140:B2 *1140:B1 2.75346e-06
77 *1140:B2 *823:142 4.93938e-05
78 *1143:B *823:52 1.60494e-06
79 *1143:C1 *823:46 8.43215e-07
80 *1143:C1 *823:52 7.65847e-06
81 *1155:A *1155:B1 2.75346e-06
82 *1155:B2 *1155:B1 2.75346e-06
83 *1184:A1 *823:25 0
84 *1184:A2 *823:25 0
85 *1188:A1 *823:52 1.04526e-05
86 *1190:A1 *823:52 5.69909e-06
87 *1192:A1 *1063:B1 0
88 *1192:A2 *1063:B1 9.62051e-07
89 *1226:B1 *823:154 0
90 *1228:B2 *1326:C2 2.47268e-05
91 *1237:B1 *1140:B1 0
92 *1237:B1 *823:136 1.50704e-05
93 *1237:B2 *823:136 3.89989e-05
94 *1238:B1 *1125:B1 2.7964e-05
95 *1238:B2 *1125:B1 1.38854e-05
96 *1239:B1 *823:142 1.28122e-06
97 *1240:B2 *1125:B1 7.16188e-07
98 *1240:B2 *823:142 0
99 *1240:B2 *823:187 4.01666e-06
100 *1326:C1 *1326:C2 9.24306e-06
101 *1331:B *823:46 6.85774e-07
102 *1453:D *823:142 0
103 *1467:D *1326:C2 5.64998e-06
104 *320:8 *823:14 3.76691e-05
105 *369:10 *1155:B1 0
106 *383:10 *823:154 4.9628e-06
107 *384:14 *823:154 4.07871e-06
108 *389:14 *823:25 0
109 *389:14 *823:29 9.62051e-07
110 *417:12 *823:14 0
111 *417:12 *823:25 0
112 *430:10 *1128:C2 0
113 *430:10 *823:52 0
114 *440:10 *823:12 1.49791e-05
115 *440:26 *823:12 6.46595e-05
116 *443:12 *823:52 1.64688e-05
117 *457:8 *823:148 0.00021675
118 *457:8 *823:154 4.16665e-05
119 *457:8 *823:187 6.32461e-06
120 *470:8 *823:14 0
121 *471:8 *823:35 0
122 *471:15 *823:29 0
123 *471:33 *823:35 0
124 *471:42 *823:46 0
125 *471:51 *823:52 0
126 *471:53 *1063:B1 0
127 *471:53 *823:52 0
128 *471:53 *823:56 0
129 *476:161 *1128:C2 0
130 *476:161 *823:56 3.90865e-05
131 *476:163 *1128:C2 0
132 *491:26 *1078:C2 2.57155e-06
133 *491:73 *823:142 0
134 *514:8 *1326:C2 2.57731e-05
135 *514:8 *823:114 1.51941e-05
136 *516:16 *823:12 3.88957e-06
137 *516:26 *823:8 0
138 *517:12 *823:46 6.74466e-06
139 *519:12 *823:46 5.61423e-05
*RES
1 *1636:Z *823:8 16.75 
2 *823:8 *823:12 47.3214 
3 *823:12 *823:14 12.75 
4 *823:14 *1098:C2 5 
5 *823:14 *823:25 22.1072 
6 *823:25 *823:29 16.3571 
7 *823:29 *823:35 21.4286 
8 *823:35 *1331:C2 5 
9 *823:35 *823:46 12.1071 
10 *823:46 *823:52 25.3929 
11 *823:52 *823:56 15.25 
12 *823:56 *1063:B1 15.4286 
13 *823:56 *1155:B1 36.7143 
14 *823:52 *1128:C2 16.25 
15 *823:46 *1143:C2 5 
16 *823:29 *1083:C2 5.92857 
17 *823:25 *1113:C2 5 
18 *823:12 *823:114 34.75 
19 *823:114 *1326:C2 40.3214 
20 *823:114 *823:129 13.25 
21 *823:129 *1108:C2 5 
22 *823:129 *823:136 19.25 
23 *823:136 *823:142 36.3572 
24 *823:142 *823:148 33.1429 
25 *823:148 *823:154 42.8572 
26 *823:154 *1067:C2 27.5357 
27 *823:154 *1093:C2 5 
28 *823:148 *1078:C2 14.6786 
29 *823:142 *823:187 8.60714 
30 *823:187 *1157:B1 5 
31 *823:187 *1125:B1 32.7857 
32 *823:136 *1140:B1 6.25 
*END

*D_NET *825 0.0148764
*CONN
*I *1100:B1 I *D AOI22_X1
*I *1085:B1 I *D AOI22_X1
*I *1070:B1 I *D AOI22_X1
*I *1152:B1 I *D AOI22_X1
*I *1333:B1 I *D AOI22_X1
*I *1115:B1 I *D AOI22_X1
*I *1109:B1 I *D AOI22_X1
*I *1079:B1 I *D AOI22_X1
*I *1327:B1 I *D AOI22_X1
*I *1158:B1 I *D AOI22_X1
*I *1059:B1 I *D AOI22_X1
*I *1137:B1 I *D AOI22_X1
*I *1122:B1 I *D AOI22_X1
*I *1094:B1 I *D AOI22_X1
*I *1145:B1 I *D AOI22_X1
*I *1130:B1 I *D AOI22_X1
*I *1638:Z O *D BUF_X4
*CAP
1 *1100:B1 0
2 *1085:B1 3.44167e-05
3 *1070:B1 6.70931e-05
4 *1152:B1 0
5 *1333:B1 7.28962e-05
6 *1115:B1 0
7 *1109:B1 0
8 *1079:B1 0
9 *1327:B1 0
10 *1158:B1 0
11 *1059:B1 3.25249e-05
12 *1137:B1 0.000345291
13 *1122:B1 6.50565e-06
14 *1094:B1 0.000310144
15 *1145:B1 5.40476e-05
16 *1130:B1 1.17031e-05
17 *1638:Z 0
18 *825:223 0.000267607
19 *825:203 0.000404431
20 *825:127 0.000494185
21 *825:117 0.000430526
22 *825:111 0.000621658
23 *825:105 0.000597213
24 *825:101 0.000284247
25 *825:86 0.000508157
26 *825:82 0.000773261
27 *825:80 0.00066702
28 *825:76 0.000288789
29 *825:70 0.000786522
30 *825:59 0.000366144
31 *825:55 0.000735673
32 *825:34 0.00067681
33 *825:28 0.000392114
34 *825:16 0.000316346
35 *825:8 0.00148125
36 *825:6 0.00135428
37 *1059:B1 *1059:A2 3.29694e-06
38 *1070:B1 *1070:A2 1.58088e-05
39 *1085:B1 *1070:A2 2.84119e-05
40 *1085:B1 *826:61 5.39412e-06
41 *1094:B1 *1094:A2 0.000143522
42 *1137:B1 *833:18 0
43 *1145:B1 *1145:A2 0
44 *1333:B1 *1333:A2 6.78538e-05
45 *1333:B1 *1443:CK 0
46 *825:8 *827:94 0
47 *825:8 *827:109 0
48 *825:8 *827:119 0
49 *825:28 *844:65 5.78409e-05
50 *825:34 *1130:A2 7.19036e-06
51 *825:34 *826:46 9.03333e-06
52 *825:34 *826:61 1.2203e-05
53 *825:34 *844:65 1.03704e-05
54 *825:59 *1152:A2 3.37218e-05
55 *825:70 *1145:A2 0
56 *825:70 *826:91 0
57 *825:70 *826:93 0
58 *825:76 *826:117 6.30286e-05
59 *825:80 *1115:A2 6.10878e-05
60 *825:82 *1399:CK 0
61 *825:82 *1403:CK 0
62 *825:101 *826:138 2.87703e-06
63 *825:101 *826:142 2.16072e-07
64 *825:105 *1327:A2 4.13439e-05
65 *825:105 *826:142 3.74848e-05
66 *825:111 *826:161 1.85972e-05
67 *825:111 *826:163 1.3608e-05
68 *825:117 *1410:CK 1.26815e-05
69 *825:117 *826:163 0.000104525
70 *825:117 *826:169 6.6637e-06
71 *825:127 *826:169 1.51409e-05
72 *825:203 *826:91 0.000110667
73 *825:223 *826:61 9.72441e-05
74 *913:A *1094:B1 0
75 *917:A *825:86 0
76 *927:A *825:82 0
77 *928:A *1094:B1 0
78 *931:A *825:82 3.6947e-05
79 *943:A *825:28 6.0406e-05
80 *1038:A *825:82 1.34605e-05
81 *1059:A1 *1059:B1 3.65322e-06
82 *1059:B2 *1059:B1 2.75346e-06
83 *1070:A1 *1070:B1 2.43548e-06
84 *1079:B2 *1094:B1 0
85 *1079:B2 *825:101 4.79358e-06
86 *1079:B2 *825:105 2.39679e-06
87 *1080:A *825:82 0
88 *1080:B2 *825:82 0
89 *1080:C1 *825:82 4.79658e-06
90 *1085:B2 *1085:B1 2.75346e-06
91 *1109:A1 *825:82 3.65322e-06
92 *1109:A1 *825:86 8.52419e-06
93 *1109:B2 *825:86 0
94 *1110:B2 *825:82 0
95 *1110:C1 *825:82 0
96 *1115:A1 *825:82 0
97 *1130:A1 *825:34 3.04651e-05
98 *1137:B2 *1137:B1 3.88456e-06
99 *1152:A1 *825:55 0
100 *1152:A1 *825:59 0
101 *1152:B2 *825:55 1.12806e-05
102 *1253:B1 *825:28 1.2202e-06
103 *1254:B1 *1333:B1 7.72792e-06
104 *1255:A1 *825:28 1.43344e-05
105 *1255:B1 *825:28 3.23723e-07
106 *1255:B2 *825:28 3.28714e-05
107 *1281:B1 *1085:B1 0
108 *1281:B1 *825:223 2.94435e-05
109 *1282:A2 *825:28 3.09411e-06
110 *1282:B1 *825:28 0
111 *1282:B2 *825:28 1.88334e-06
112 *1291:A1 *1094:B1 0
113 *1292:B2 *1094:B1 9.63725e-07
114 *1318:A1 *1094:B1 0
115 *1322:B2 *1137:B1 1.38502e-05
116 *1323:B1 *825:111 0
117 *1327:A1 *825:105 2.75346e-06
118 *1327:A1 *825:111 2.43548e-06
119 *1328:C1 *825:82 1.3604e-05
120 *1333:A1 *1333:B1 3.92795e-06
121 *1333:B2 *1333:B1 2.14856e-06
122 *1343:A2 *825:111 0
123 *1405:D *1137:B1 1.23811e-06
124 *1406:D *1122:B1 0
125 *1410:D *825:117 1.55645e-05
126 *1411:D *825:111 0
127 *1416:D *825:16 3.88123e-06
128 *1416:D *825:28 1.18232e-06
129 *1426:D *825:8 0
130 *1440:D *825:16 7.02901e-05
131 *1440:D *825:28 7.74069e-05
132 *14:12 *825:8 0
133 *366:10 *825:117 2.72417e-06
134 *366:10 *825:127 3.1154e-05
135 *366:14 *1137:B1 2.29153e-05
136 *367:14 *1137:B1 0
137 *377:16 *1070:B1 2.75346e-06
138 *385:10 *825:82 1.91498e-06
139 *385:10 *825:86 2.58751e-05
140 *385:10 *825:101 6.44217e-06
141 *405:10 *825:28 2.83676e-05
142 *413:8 *825:82 0.000264268
143 *419:8 *825:80 6.72709e-06
144 *425:12 *1137:B1 0.000198435
145 *425:12 *825:127 5.46113e-06
146 *441:20 *825:8 3.18816e-05
147 *447:10 *1145:B1 1.11258e-05
148 *453:10 *825:55 6.7872e-05
149 *459:18 *825:111 8.04661e-07
150 *473:110 *825:76 7.45418e-05
151 *496:22 *825:28 0
152 *496:22 *825:34 0
153 *496:71 *825:55 6.56007e-06
154 *496:71 *825:59 6.52927e-05
155 *501:103 *1070:B1 1.27757e-05
156 *515:12 *825:82 0
157 *515:12 *825:86 0
158 *515:12 *825:101 0
159 *515:12 *825:105 0
160 *515:12 *825:111 0
161 *521:20 *1333:B1 0
162 *681:10 *1130:B1 0
163 *683:12 *825:16 3.56223e-05
164 *683:12 *825:28 2.75346e-06
165 *686:10 *825:203 5.01004e-05
166 *713:18 *1059:B1 0
167 *713:18 *825:127 5.97101e-05
168 *716:8 *825:105 7.34533e-06
169 *718:8 *825:105 0
170 *782:10 *1333:B1 0
*RES
1 *1638:Z *825:6 10 
2 *825:6 *825:8 149.536 
3 *825:8 *825:16 20.6071 
4 *825:16 *825:28 36.0357 
5 *825:28 *825:34 9.92857 
6 *825:34 *1130:B1 11.0357 
7 *825:34 *825:55 40.8657 
8 *825:55 *825:59 19.75 
9 *825:59 *1145:B1 15 
10 *825:59 *825:70 21.9643 
11 *825:70 *825:76 20.92 
12 *825:76 *825:80 10 
13 *825:80 *825:82 74.75 
14 *825:82 *825:86 20.75 
15 *825:86 *1094:B1 44.8572 
16 *825:86 *825:101 10.6786 
17 *825:101 *825:105 26.6786 
18 *825:105 *825:111 45.3572 
19 *825:111 *825:117 32.7857 
20 *825:117 *825:127 17.0471 
21 *825:127 *1122:B1 15.5357 
22 *825:127 *1137:B1 33.4 
23 *825:117 *1059:B1 13.25 
24 *825:111 *1158:B1 10 
25 *825:105 *1327:B1 5 
26 *825:101 *1079:B1 5 
27 *825:82 *1109:B1 5 
28 *825:76 *1115:B1 10 
29 *825:70 *825:203 48.1429 
30 *825:203 *1333:B1 17.7857 
31 *825:55 *1152:B1 5 
32 *825:28 *825:223 27.6429 
33 *825:223 *1070:B1 17.75 
34 *825:223 *1085:B1 14.3571 
35 *825:16 *1100:B1 5 
*END

*D_NET *826 0.0172718
*CONN
*I *1100:A2 I *D AOI22_X1
*I *1333:A2 I *D AOI22_X1
*I *1115:A2 I *D AOI22_X1
*I *1079:A2 I *D AOI22_X1
*I *1094:A2 I *D AOI22_X1
*I *1158:A2 I *D AOI22_X1
*I *1059:A2 I *D AOI22_X1
*I *1137:A2 I *D AOI22_X1
*I *1122:A2 I *D AOI22_X1
*I *1327:A2 I *D AOI22_X1
*I *1109:A2 I *D AOI22_X1
*I *1152:A2 I *D AOI22_X1
*I *1145:A2 I *D AOI22_X1
*I *1085:A2 I *D AOI22_X1
*I *1070:A2 I *D AOI22_X1
*I *1130:A2 I *D AOI22_X1
*I *1639:Z O *D BUF_X4
*CAP
1 *1100:A2 1.4708e-05
2 *1333:A2 1.61516e-05
3 *1115:A2 3.34946e-05
4 *1079:A2 0
5 *1094:A2 0.000288914
6 *1158:A2 9.86944e-06
7 *1059:A2 5.47075e-05
8 *1137:A2 0.000225949
9 *1122:A2 0
10 *1327:A2 7.76712e-05
11 *1109:A2 0
12 *1152:A2 0.000171108
13 *1145:A2 7.12305e-05
14 *1085:A2 0
15 *1070:A2 7.34196e-05
16 *1130:A2 5.78465e-06
17 *1639:Z 0
18 *826:169 0.000328764
19 *826:163 0.000405497
20 *826:161 0.000478322
21 *826:155 0.000626247
22 *826:142 0.000333995
23 *826:138 0.000300716
24 *826:123 0.00101704
25 *826:117 0.00113157
26 *826:93 0.000395151
27 *826:91 0.00076247
28 *826:85 0.000762283
29 *826:72 0.000393361
30 *826:61 0.000288206
31 *826:46 0.000529571
32 *826:38 0.000461186
33 *826:36 0.000413464
34 *826:28 0.000542496
35 *826:20 0.000600934
36 *826:16 0.000745221
37 *826:12 0.000656615
38 *826:6 0.00068414
39 *826:4 0.000423714
40 *1070:A2 *844:116 2.29485e-05
41 *1100:A2 *844:65 1.68643e-06
42 *1137:A2 *833:18 1.05397e-05
43 *1137:A2 *833:28 9.11568e-05
44 *1137:A2 *833:36 4.45934e-05
45 *826:6 *851:6 0
46 *826:6 *851:12 0
47 *826:12 *827:88 0.000507881
48 *826:36 *1434:CK 0
49 *826:36 *844:71 5.0216e-06
50 *826:38 *844:71 0
51 *826:85 *1441:CK 4.48126e-05
52 *826:85 *844:116 0
53 *826:91 *842:90 0
54 *826:91 *842:103 0
55 *826:155 *1411:CK 0
56 *826:155 *834:108 0.000329958
57 *826:169 *833:36 5.41857e-05
58 *934:A *1137:A2 2.48915e-05
59 *953:A *826:36 3.01997e-05
60 *956:A *1100:A2 2.39679e-06
61 *1041:A *826:91 6.66211e-05
62 *1059:A1 *1059:A2 2.75346e-06
63 *1059:B1 *1059:A2 3.29694e-06
64 *1070:A1 *1070:A2 2.75346e-06
65 *1070:B1 *1070:A2 1.58088e-05
66 *1085:B1 *1070:A2 2.84119e-05
67 *1085:B1 *826:61 5.39412e-06
68 *1094:B1 *1094:A2 0.000143522
69 *1100:A1 *1100:A2 1.64277e-05
70 *1109:A1 *826:123 2.28607e-06
71 *1109:A1 *826:138 4.45767e-06
72 *1122:A1 *826:169 0
73 *1130:A1 *826:61 1.36786e-05
74 *1130:B2 *1130:A2 6.38328e-07
75 *1137:B2 *1137:A2 4.9829e-06
76 *1145:A1 *1145:A2 4.4061e-05
77 *1145:B1 *1145:A2 0
78 *1158:A1 *1158:A2 1.26998e-05
79 *1254:A1 *826:85 0
80 *1254:B1 *826:85 0
81 *1293:B1 *826:138 2.33807e-05
82 *1293:B1 *826:142 1.0537e-05
83 *1293:B2 *826:138 0
84 *1294:B1 *1137:A2 1.57722e-05
85 *1294:B2 *1137:A2 1.68643e-06
86 *1295:B2 *1137:A2 9.55817e-05
87 *1319:A1 *1094:A2 0
88 *1322:B2 *1137:A2 1.64551e-05
89 *1323:B1 *1158:A2 1.28122e-06
90 *1327:A1 *1327:A2 2.39679e-06
91 *1333:A1 *1333:A2 5.56509e-05
92 *1333:A1 *826:85 4.79358e-06
93 *1333:A1 *826:91 5.43615e-05
94 *1333:B1 *1333:A2 6.78538e-05
95 *1343:A2 *1327:A2 0
96 *1343:A2 *826:142 9.57492e-07
97 *1405:D *1137:A2 3.25302e-06
98 *1407:D *826:138 1.62956e-05
99 *1410:D *826:163 8.58925e-06
100 *1411:D *1327:A2 1.02224e-05
101 *1440:D *1100:A2 3.09143e-06
102 *1638:A *826:6 0.000213648
103 *365:10 *826:6 1.05232e-05
104 *366:14 *1137:A2 3.84531e-05
105 *366:14 *826:169 2.37615e-05
106 *377:18 *826:36 3.1212e-06
107 *377:18 *826:38 6.59856e-05
108 *385:6 *826:138 1.04584e-06
109 *385:10 *826:138 0.000197831
110 *419:8 *1115:A2 2.80666e-05
111 *441:26 *826:6 0
112 *459:18 *826:161 5.50682e-05
113 *473:89 *826:85 0
114 *473:110 *826:117 2.41667e-07
115 *473:110 *826:123 2.53031e-05
116 *474:140 *826:36 6.92191e-05
117 *476:189 *1137:A2 8.80938e-06
118 *496:22 *1130:A2 0
119 *496:71 *1152:A2 0
120 *501:39 *1145:A2 1.70233e-05
121 *505:70 *826:155 0.000522509
122 *505:83 *826:142 2.0121e-05
123 *511:22 *1137:A2 0
124 *680:10 *1145:A2 2.03632e-05
125 *681:10 *826:61 0
126 *683:12 *1100:A2 2.18022e-06
127 *683:12 *826:38 4.01849e-06
128 *686:10 *826:91 5.01004e-05
129 *689:10 *826:169 0
130 *691:10 *1094:A2 0
131 *713:18 *826:169 5.56936e-06
132 *780:12 *826:85 0
133 *825:34 *1130:A2 7.19036e-06
134 *825:34 *826:46 9.03333e-06
135 *825:34 *826:61 1.2203e-05
136 *825:59 *1152:A2 3.37218e-05
137 *825:70 *1145:A2 0
138 *825:70 *826:91 0
139 *825:70 *826:93 0
140 *825:76 *826:117 6.30286e-05
141 *825:80 *1115:A2 6.10878e-05
142 *825:101 *826:138 2.87703e-06
143 *825:101 *826:142 2.16072e-07
144 *825:105 *1327:A2 4.13439e-05
145 *825:105 *826:142 3.74848e-05
146 *825:111 *826:161 1.85972e-05
147 *825:111 *826:163 1.3608e-05
148 *825:117 *826:163 0.000104525
149 *825:117 *826:169 6.6637e-06
150 *825:127 *826:169 1.51409e-05
151 *825:203 *826:91 0.000110667
152 *825:223 *826:61 9.72441e-05
*RES
1 *1639:Z *826:4 5 
2 *826:4 *826:6 48.75 
3 *826:6 *826:12 42.9822 
4 *826:12 *826:16 42.4822 
5 *826:16 *826:20 44.8572 
6 *826:20 *826:28 37.2857 
7 *826:28 *826:36 37.1607 
8 *826:36 *826:38 15.9464 
9 *826:38 *826:46 21.63 
10 *826:46 *1130:A2 10.75 
11 *826:46 *826:61 26.3572 
12 *826:61 *1070:A2 19.75 
13 *826:61 *826:72 1.60714 
14 *826:72 *1085:A2 10 
15 *826:72 *826:85 44.0714 
16 *826:85 *826:91 49.2857 
17 *826:91 *826:93 16.9286 
18 *826:93 *1145:A2 19.25 
19 *826:93 *1152:A2 28.25 
20 *826:91 *826:117 14.45 
21 *826:117 *826:123 36.8257 
22 *826:123 *1109:A2 10 
23 *826:123 *826:138 27.7857 
24 *826:138 *826:142 17.1786 
25 *826:142 *1327:A2 14.75 
26 *826:142 *826:155 37.5357 
27 *826:155 *826:161 15.8014 
28 *826:161 *826:163 30.7857 
29 *826:163 *826:169 18.6429 
30 *826:169 *1122:A2 5 
31 *826:169 *1137:A2 48.8929 
32 *826:163 *1059:A2 15.25 
33 *826:161 *1158:A2 11.25 
34 *826:155 *1094:A2 31.1814 
35 *826:138 *1079:A2 5 
36 *826:117 *1115:A2 20.2857 
37 *826:85 *1333:A2 18.6429 
38 *826:38 *1100:A2 11.9286 
*END

*D_NET *827 0.0148174
*CONN
*I *1104:A I *D OAI21_X1
*I *1261:A1 I *D NAND2_X1
*I *1252:A1 I *D NAND2_X2
*I *1279:A1 I *D NAND2_X1
*I *1270:A1 I *D NAND2_X1
*I *1134:A I *D OAI21_X1
*I *1162:A I *D OAI21_X1
*I *1119:A I *D OAI21_X1
*I *1149:A I *D OAI21_X1
*I *1337:A I *D OAI21_X1
*I *1089:A I *D OAI21_X1
*I *1074:A I *D OAI21_X1
*I *1233:A1 I *D NAND2_X1
*I *1242:A1 I *D NAND2_X1
*I *1215:A1 I *D NAND2_X2
*I *1224:A1 I *D NAND2_X1
*I *1640:Z O *D BUF_X4
*CAP
1 *1104:A 0
2 *1261:A1 2.75643e-05
3 *1252:A1 0
4 *1279:A1 5.02888e-05
5 *1270:A1 0
6 *1134:A 9.49439e-05
7 *1162:A 0
8 *1119:A 0.000326852
9 *1149:A 8.71307e-06
10 *1337:A 0.000107347
11 *1089:A 5.55284e-06
12 *1074:A 0.000172687
13 *1233:A1 0.00029185
14 *1242:A1 0.000140381
15 *1215:A1 8.71307e-06
16 *1224:A1 1.47347e-05
17 *1640:Z 0.000145328
18 *827:248 0.000218472
19 *827:244 0.000533201
20 *827:238 0.000499789
21 *827:230 0.00040347
22 *827:215 0.000356854
23 *827:173 0.00045926
24 *827:148 0.000423462
25 *827:142 0.000294776
26 *827:136 0.000395936
27 *827:134 0.000415883
28 *827:119 0.000216391
29 *827:109 0.000293565
30 *827:94 0.000588389
31 *827:92 0.000434399
32 *827:88 0.000321015
33 *827:84 0.000828698
34 *827:65 0.0012451
35 *827:29 0.000261781
36 *827:23 0.000451338
37 *827:12 0.0002561
38 *1233:A1 *828:113 1.62382e-06
39 *1242:A1 *839:102 2.4792e-05
40 *827:12 *839:93 0
41 *827:23 *839:93 0
42 *827:29 *839:102 0
43 *827:148 *1372:CK 4.14913e-06
44 *827:244 *844:34 0.000197586
45 data_out[4] *1074:A 0
46 data_out[4] *827:109 1.08381e-05
47 data_out[4] *827:119 2.39679e-06
48 data_out[5] *1089:A 7.72792e-06
49 data_out[5] *827:119 8.35016e-05
50 data_out[7] *1074:A 0
51 *953:A *1261:A1 4.4061e-05
52 *953:A *827:238 7.19036e-06
53 *981:A *827:23 1.64551e-05
54 *985:A *827:12 3.83757e-05
55 *1065:A2 *827:65 5.56848e-05
56 *1067:A *827:65 0
57 *1074:B1 *1074:A 6.66211e-05
58 *1105:A *827:119 6.0887e-06
59 *1117:B2 *1119:A 1.88444e-05
60 *1134:B1 *1134:A 2.75346e-06
61 *1149:B1 *1119:A 1.56073e-06
62 *1149:B1 *827:173 1.53235e-05
63 *1150:B1 *1119:A 0
64 *1160:A2 *1337:A 1.16067e-05
65 *1160:A2 *827:148 6.9053e-06
66 *1163:A *827:148 1.93278e-05
67 *1163:B2 *1337:A 1.2752e-06
68 *1163:B2 *827:148 0
69 *1216:B1 *1215:A1 0
70 *1216:B1 *1242:A1 2.23415e-06
71 *1216:B2 *1242:A1 3.87196e-05
72 *1225:B1 *1224:A1 7.29164e-07
73 *1225:B1 *827:23 1.50501e-05
74 *1227:B1 *827:12 1.91954e-06
75 *1227:B2 *827:12 5.08198e-06
76 *1236:B2 *1233:A1 1.37673e-05
77 *1243:B1 *1242:A1 1.86809e-06
78 *1264:A2 *1261:A1 8.43215e-07
79 *1279:A2 *1279:A1 1.21774e-06
80 *1336:B2 *827:173 4.92863e-06
81 *1338:A *1337:A 3.10376e-06
82 *1372:D *827:148 0
83 *1374:D *1134:A 1.27666e-06
84 *1434:D *827:230 4.24381e-05
85 *1464:D *827:12 8.9406e-06
86 *1466:D *827:23 7.64721e-05
87 *1474:D *1242:A1 1.72061e-05
88 *10:12 *827:148 0
89 *10:21 *827:142 4.12792e-05
90 *10:21 *827:148 2.39679e-06
91 *10:23 *1089:A 2.52965e-06
92 *10:23 *827:119 3.46934e-05
93 *10:23 *827:134 0.000108899
94 *10:23 *827:136 0.000274943
95 *10:23 *827:142 7.14998e-05
96 *11:8 *1119:A 0
97 *11:23 *1119:A 1.98199e-05
98 *11:25 *827:134 0
99 *11:25 *827:136 0
100 *11:25 *827:142 0
101 *12:19 *827:109 1.69046e-05
102 *12:19 *827:119 3.51654e-06
103 *14:12 *827:119 1.70033e-05
104 *15:12 *827:134 4.66905e-05
105 *260:10 *827:230 8.06346e-05
106 *260:10 *827:238 1.62708e-06
107 *288:6 *827:23 1.07428e-06
108 *363:12 *1242:A1 1.0495e-05
109 *375:36 *1134:A 7.72792e-06
110 *375:42 *1149:A 0
111 *375:54 *1119:A 9.77674e-06
112 *375:54 *827:173 2.73686e-05
113 *378:20 *827:215 1.80849e-05
114 *384:28 *1337:A 0
115 *393:16 *1149:A 0
116 *393:16 *827:148 0
117 *393:16 *827:173 0.000104037
118 *397:10 *827:29 0.00013128
119 *397:10 *827:65 0.000299509
120 *405:10 *827:230 0
121 *406:10 *827:215 0.000363472
122 *406:10 *827:230 0.000533058
123 *427:30 *827:88 1.42092e-05
124 *434:8 *1134:A 7.64528e-05
125 *454:8 *827:148 6.12577e-05
126 *458:12 *1337:A 3.57014e-05
127 *462:19 *1337:A 3.26291e-06
128 *474:44 *827:12 2.07643e-05
129 *474:98 *827:119 0.000144816
130 *474:152 *827:244 1.88444e-05
131 *476:59 *827:88 0.000146851
132 *476:289 *1279:A1 1.72301e-05
133 *476:289 *827:248 5.49102e-05
134 *487:26 *827:29 6.49796e-05
135 *489:20 *827:12 3.83909e-06
136 *493:8 *1242:A1 1.72426e-05
137 *493:41 *1242:A1 2.41432e-06
138 *493:41 *827:29 3.82997e-06
139 *497:58 *827:238 1.36846e-05
140 *497:65 *1261:A1 1.61774e-05
141 *497:65 *827:238 2.52965e-06
142 *498:10 *827:230 0
143 *502:6 *1279:A1 2.40498e-06
144 *502:12 *1279:A1 4.08249e-06
145 *502:16 *1279:A1 1.27666e-06
146 *502:60 *1279:A1 7.6145e-06
147 *502:60 *827:248 0.000102
148 *763:12 *1233:A1 1.32323e-05
149 *765:10 *827:65 5.82813e-05
150 *825:8 *827:94 0
151 *825:8 *827:109 0
152 *825:8 *827:119 0
153 *826:12 *827:88 0.000507881
*RES
1 *1640:Z *827:12 31.3571 
2 *827:12 *1224:A1 6.60714 
3 *827:12 *827:23 17.75 
4 *827:23 *827:29 19.7857 
5 *827:29 *1215:A1 5.92857 
6 *827:29 *1242:A1 32.6072 
7 *827:23 *827:65 38.1072 
8 *827:65 *1233:A1 26.3029 
9 *827:65 *827:84 30.83 
10 *827:84 *827:88 32.25 
11 *827:88 *827:92 26.25 
12 *827:92 *827:94 25.3572 
13 *827:94 *1074:A 28.25 
14 *827:94 *827:109 25.0357 
15 *827:109 *827:119 27.7143 
16 *827:119 *1089:A 5.75 
17 *827:119 *827:134 23.0357 
18 *827:134 *827:136 26.25 
19 *827:136 *827:142 12.2857 
20 *827:142 *827:148 26.25 
21 *827:148 *1337:A 22.4286 
22 *827:148 *827:173 31.1071 
23 *827:173 *1149:A 5.92857 
24 *827:173 *1119:A 48.8214 
25 *827:142 *1162:A 5 
26 *827:136 *1134:A 26.8571 
27 *827:134 *827:215 24.25 
28 *827:215 *1270:A1 10 
29 *827:215 *827:230 42.2143 
30 *827:230 *827:238 24.8571 
31 *827:238 *827:244 45.1786 
32 *827:244 *827:248 28.25 
33 *827:248 *1279:A1 12.1071 
34 *827:248 *1252:A1 5 
35 *827:230 *1261:A1 9.25 
36 *827:109 *1104:A 5 
*END

*D_NET *851 0.0143139
*CONN
*I *1099:A3 I *D NAND3_X1
*I *1069:A3 I *D NAND3_X1
*I *1084:A3 I *D NAND3_X1
*I *1129:A3 I *D NAND3_X1
*I *1151:A3 I *D NAND3_X1
*I *1332:A2 I *D NAND3_X1
*I *1144:A3 I *D NAND3_X1
*I *1114:A3 I *D NAND3_X1
*I *1136:A3 I *D NAND3_X1
*I *1126:A3 I *D NAND3_X1
*I *1106:A3 I *D NAND3_X1
*I *1496:A I *D AOI21_X1
*I *1065:A3 I *D NAND3_X1
*I *1678:Z O *D BUF_X2
*CAP
1 *1099:A3 7.64482e-06
2 *1069:A3 0
3 *1084:A3 0
4 *1129:A3 0
5 *1151:A3 0
6 *1332:A2 1.93162e-05
7 *1144:A3 0
8 *1114:A3 2.14476e-05
9 *1136:A3 1.38429e-05
10 *1126:A3 0
11 *1106:A3 0.000107991
12 *1496:A 0
13 *1065:A3 7.3517e-05
14 *1678:Z 3.52227e-05
15 *851:131 4.88614e-05
16 *851:127 0.000641862
17 *851:113 0.000706158
18 *851:111 0.000405985
19 *851:101 0.00106339
20 *851:93 0.00119109
21 *851:83 0.000584331
22 *851:81 0.000391193
23 *851:77 0.000285514
24 *851:75 0.000373378
25 *851:69 0.000429236
26 *851:65 0.000353864
27 *851:61 0.000319371
28 *851:59 6.02118e-05
29 *851:57 0.000414061
30 *851:42 0.000807402
31 *851:40 0.00110868
32 *851:34 0.00102068
33 *851:12 0.000265687
34 *851:6 0.000424736
35 *942:A *851:57 5.83753e-05
36 *946:A *851:75 0
37 *972:A *1106:A3 6.66374e-06
38 *974:A *851:40 0
39 *978:A *851:42 0
40 *1053:A2 *851:42 0
41 *1065:A2 *1065:A3 2.75346e-06
42 *1069:A2 *851:61 7.72537e-06
43 *1084:A2 *851:65 2.75346e-06
44 *1084:A2 *851:69 0
45 *1099:A2 *851:57 9.04209e-05
46 *1101:A *851:61 1.35664e-06
47 *1106:A2 *1106:A3 7.61646e-06
48 *1106:A2 *851:42 0
49 *1108:A *1106:A3 4.76412e-06
50 *1114:A2 *851:83 3.5108e-06
51 *1114:A2 *851:93 6.38328e-07
52 *1118:B2 *1106:A3 8.25444e-06
53 *1126:A2 *851:111 0.000118825
54 *1126:A2 *851:113 0.000157677
55 *1128:A *851:127 8.762e-07
56 *1136:A2 *1136:A3 2.75346e-06
57 *1136:A2 *851:93 0
58 *1138:A *1136:A3 5.79516e-06
59 *1138:A *851:93 0
60 *1138:B *851:93 1.87418e-05
61 *1146:A *851:83 7.19234e-06
62 *1151:A2 *851:75 4.45934e-05
63 *1151:A2 *851:77 2.75346e-06
64 *1200:B2 *851:111 2.03657e-05
65 *1201:B2 *851:113 0
66 *1272:B2 *851:69 0
67 *1273:B2 *851:57 0.000119369
68 *1313:B2 *1136:A3 1.40196e-06
69 *1332:A3 *1332:A2 7.72537e-06
70 *1332:A3 *851:81 3.09143e-06
71 *1376:CK *851:57 0.000171058
72 *1378:D *851:57 0
73 *1378:CK *851:34 0.000129157
74 *1378:CK *851:57 0.000211373
75 *1452:CK *851:40 0
76 *1452:CK *851:42 0
77 *1487:D *851:127 1.53761e-05
78 *1487:D *851:131 0
79 *1494:A *851:34 0.000156187
80 *1498:A *851:34 0.000184842
81 *1501:A1 *851:34 5.48932e-05
82 *1502:A2 *851:34 0
83 *1502:A3 *851:34 0
84 *1505:D *851:34 7.95929e-05
85 *1505:CK *851:34 1.72405e-05
86 *15:12 *851:57 0.000105158
87 *23:20 *851:34 0
88 *24:10 *851:40 7.20944e-05
89 *24:14 *851:40 0
90 *24:14 *851:42 0
91 *24:56 *851:34 0.000145858
92 *24:56 *851:40 3.60016e-05
93 *365:10 *1065:A3 0
94 *365:10 *851:12 0
95 *374:8 *1065:A3 6.92212e-05
96 *374:8 *851:12 0.000153682
97 *378:10 *851:57 7.98279e-05
98 *440:10 *1136:A3 0
99 *440:10 *851:93 5.19749e-06
100 *441:26 *851:6 6.87788e-06
101 *441:26 *851:12 3.58364e-05
102 *456:14 *851:127 0
103 *460:18 *1136:A3 5.11191e-06
104 *460:18 *851:93 0
105 *473:41 *851:127 0
106 *473:45 *851:127 1.49504e-05
107 *476:65 *851:34 6.08244e-06
108 *476:163 *851:111 0
109 *476:172 *851:111 0
110 *481:25 *851:113 0
111 *481:29 *851:113 0
112 *672:8 *851:81 0
113 *673:6 *851:69 0
114 *674:8 *851:83 0
115 *676:8 *851:75 6.06867e-06
116 *677:10 *851:61 0
117 *678:8 *851:81 0
118 *729:14 *851:111 2.83063e-05
119 *730:16 *851:127 0
120 *762:10 *1106:A3 1.33585e-05
121 *762:10 *851:42 6.07323e-06
122 *826:6 *851:6 0
123 *826:6 *851:12 0
124 *828:223 *851:101 3.51384e-05
125 *828:233 *851:101 0.000124197
126 *840:88 *851:40 0
127 *843:100 *851:57 0.000464518
*RES
1 *1678:Z *851:6 8.75 
2 *851:6 *851:12 28.6429 
3 *851:12 *1065:A3 18.3929 
4 *851:12 *1496:A 10 
5 *851:6 *851:34 38.5 
6 *851:34 *851:40 48.7857 
7 *851:40 *851:42 69.6429 
8 *851:42 *1106:A3 27.3214 
9 *851:34 *851:57 68.1072 
10 *851:57 *851:59 5 
11 *851:59 *851:61 5.25 
12 *851:61 *851:65 26.3572 
13 *851:65 *851:69 8.71429 
14 *851:69 *851:75 34.1429 
15 *851:75 *851:77 3.25 
16 *851:77 *851:81 23.3572 
17 *851:81 *851:83 15.75 
18 *851:83 *851:93 47.0372 
19 *851:93 *851:101 48.69 
20 *851:101 *851:111 39.8843 
21 *851:111 *851:113 14.75 
22 *851:113 *851:127 46.6057 
23 *851:127 *851:131 9.75 
24 *851:113 *1126:A3 5 
25 *851:93 *1136:A3 16.7143 
26 *851:83 *1114:A3 7.28572 
27 *851:81 *1144:A3 5 
28 *851:77 *1332:A2 7.67857 
29 *851:75 *1151:A3 5 
30 *851:69 *1129:A3 5 
31 *851:65 *1084:A3 5 
32 *851:61 *1069:A3 5 
33 *851:59 *1099:A3 5.75 
*END

*D_NET *791 0.000238262
*CONN
*I *1505:D I *D DFF_X1
*I *1495:ZN O *D AOI21_X1
*CAP
1 *1505:D 5.54295e-05
2 *1495:ZN 5.54295e-05
3 *1505:D *1494:A 7.72537e-06
4 *1505:D *1495:A 3.35822e-05
5 *1505:D *1502:A3 2.66814e-06
6 *1505:D *851:34 7.95929e-05
7 *1494:B2 *1505:D 3.83453e-06
*RES
1 *1495:ZN *1505:D 27.5714 
*END

*D_NET *792 0.00010115
*CONN
*I *1504:D I *D DFF_X2
*I *1497:ZN O *D NOR3_X1
*CAP
1 *1504:D 4.1793e-05
2 *1497:ZN 4.1793e-05
3 *1504:D *1497:A3 1.68482e-05
4 *1504:D *1504:CK 7.16188e-07
5 *1638:A *1504:D 0
*RES
1 *1497:ZN *1504:D 14.6786 
*END

*D_NET *793 0.000146912
*CONN
*I *1503:D I *D DFF_X1
*I *1499:ZN O *D AOI21_X1
*CAP
1 *1503:D 6.67259e-05
2 *1499:ZN 6.67259e-05
3 *1503:D *1497:A3 1.34605e-05
*RES
1 *1499:ZN *1503:D 26.8929 
*END

*D_NET *794 0.000102531
*CONN
*I *1506:D I *D DFF_X1
*I *1502:ZN O *D NOR3_X1
*CAP
1 *1506:D 4.80426e-05
2 *1502:ZN 4.80426e-05
3 *1506:D *1502:A2 0
4 *1500:A *1506:D 6.44574e-06
*RES
1 *1502:ZN *1506:D 24.8571 
*END

*D_NET *795 0.000740725
*CONN
*I *1494:A I *D OAI21_X1
*I *1498:A I *D OAI21_X1
*I *1492:ZN O *D INV_X1
*CAP
1 *1494:A 8.0043e-05
2 *1498:A 7.43341e-05
3 *1492:ZN 4.09074e-05
4 *795:8 0.000195285
5 *1494:A *851:34 0.000156187
6 *1498:A *851:34 0.000184842
7 *1494:B2 *1494:A 1.40196e-06
8 *1505:D *1494:A 7.72537e-06
9 *23:20 *1494:A 0
10 *476:65 *795:8 0
*RES
1 *1492:ZN *795:8 13.75 
2 *795:8 *1498:A 21.1071 
3 *795:8 *1494:A 20.8214 
*END

*D_NET *797 0.000203132
*CONN
*I *1495:A I *D AOI21_X1
*I *1494:ZN O *D OAI21_X1
*CAP
1 *1495:A 6.05714e-05
2 *1494:ZN 6.05714e-05
3 *1495:A *1502:A3 4.37043e-05
4 *1494:B2 *1495:A 0
5 *1495:B2 *1495:A 1.40196e-06
6 *1501:A1 *1495:A 3.30047e-06
7 *1505:D *1495:A 3.35822e-05
8 *476:65 *1495:A 0
*RES
1 *1494:ZN *1495:A 18.0357 
*END

*D_NET *798 0.000680142
*CONN
*I *1497:A3 I *D NOR3_X1
*I *1496:ZN O *D AOI21_X1
*CAP
1 *1497:A3 0.000311702
2 *1496:ZN 0.000311702
3 *1497:A3 *1499:A 3.19164e-06
4 *1497:A3 *1503:CK 1.58933e-05
5 *1497:A3 *1504:CK 0
6 *1503:D *1497:A3 1.34605e-05
7 *1504:D *1497:A3 1.68482e-05
8 *1638:A *1497:A3 0
9 *1639:A *1497:A3 7.34533e-06
10 *365:10 *1497:A3 0
*RES
1 *1496:ZN *1497:A3 42.9643 
*END

*D_NET *799 0.000161813
*CONN
*I *1499:A I *D AOI21_X1
*I *1498:ZN O *D OAI21_X1
*CAP
1 *1499:A 7.81915e-05
2 *1498:ZN 7.81915e-05
3 *1497:A3 *1499:A 3.19164e-06
4 *1638:A *1499:A 2.23871e-06
5 *365:12 *1499:A 0
*RES
1 *1498:ZN *1499:A 27.6071 
*END

*D_NET *800 0.000462683
*CONN
*I *1502:A2 I *D NOR3_X1
*I *1500:ZN O *D AOI21_X1
*CAP
1 *1502:A2 0.000117817
2 *1500:ZN 0.000117817
3 *1502:A2 *851:34 0
4 *1500:A *1502:A2 0.000108464
5 *1501:A1 *1502:A2 0
6 *1506:D *1502:A2 0
7 *23:16 *1502:A2 0
8 *23:51 *1502:A2 0.000106067
9 *23:61 *1502:A2 1.25189e-05
*RES
1 *1500:ZN *1502:A2 37.1786 
*END

*D_NET *801 0.000302965
*CONN
*I *1502:A3 I *D NOR3_X1
*I *1501:ZN O *D AND3_X1
*CAP
1 *1502:A3 0.000111002
2 *1501:ZN 0.000111002
3 *1502:A3 *851:34 0
4 *1495:A *1502:A3 4.37043e-05
5 *1500:A *1502:A3 0
6 *1501:A1 *1502:A3 1.68334e-05
7 *1505:D *1502:A3 2.66814e-06
8 *23:16 *1502:A3 2.86475e-06
9 *23:20 *1502:A3 1.48912e-05
10 *474:98 *1502:A3 0
11 *476:65 *1502:A3 0
*RES
1 *1501:ZN *1502:A3 33.0714 
*END

*D_NET *23 0.00322731
*CONN
*I *1500:B1 I *D AOI21_X1
*I *1022:A I *D INV_X1
*I *1061:A1 I *D NOR2_X1
*I *1053:A1 I *D AND2_X1
*I *1501:A2 I *D AND3_X1
*I *1495:B2 I *D AOI21_X1
*I *1494:B2 I *D OAI21_X1
*I *1505:Q O *D DFF_X1
*CAP
1 *1500:B1 1.87197e-05
2 *1022:A 0
3 *1061:A1 0
4 *1053:A1 3.10785e-05
5 *1501:A2 5.22656e-06
6 *1495:B2 6.31742e-06
7 *1494:B2 5.52742e-05
8 *1505:Q 4.9539e-05
9 *23:67 0.00033717
10 *23:65 0.00041689
11 *23:61 0.000368729
12 *23:51 0.00034698
13 *23:20 0.000113607
14 *23:16 0.000140032
15 *23:10 0.000202659
16 *1053:A1 *1053:A2 2.40795e-05
17 *1053:A1 *24:14 1.21774e-06
18 *1053:A1 *523:18 2.01083e-05
19 *1494:B2 *1494:A 1.40196e-06
20 *1494:B2 *1495:A 0
21 *1494:B2 *1505:D 3.83453e-06
22 *1494:B2 *474:98 0
23 *1494:B2 *476:65 9.31049e-06
24 *1495:B2 *1495:A 1.40196e-06
25 *1495:B2 *476:65 0
26 *1500:B1 *374:8 4.24381e-05
27 *1501:A2 *1501:A1 5.33113e-06
28 *23:10 *24:56 4.81787e-05
29 *23:10 *840:113 0
30 *23:16 *1500:A 2.08416e-06
31 *23:16 *1501:A1 6.88125e-05
32 *23:16 *1502:A2 0
33 *23:16 *1502:A3 2.86475e-06
34 *23:16 *24:56 9.24246e-06
35 *23:20 *1494:A 0
36 *23:20 *1502:A3 1.48912e-05
37 *23:20 *474:98 0
38 *23:20 *851:34 0
39 *23:51 *1500:A 1.4491e-05
40 *23:51 *1502:A2 0.000106067
41 *23:51 *840:104 6.11168e-05
42 *23:51 *840:113 8.4215e-05
43 *23:61 *1064:A1 8.62199e-06
44 *23:61 *1502:A2 1.25189e-05
45 *23:61 *24:10 2.36005e-05
46 *23:61 *24:14 4.73469e-05
47 *23:61 *24:32 2.13573e-06
48 *23:61 *840:86 2.61627e-06
49 *23:61 *840:104 8.23282e-05
50 *23:65 *1064:A1 6.38328e-07
51 *23:65 *24:14 0.000141392
52 *23:67 *24:14 0.000189263
53 *23:67 *384:28 3.22538e-05
54 *23:67 *523:18 7.12846e-05
55 *17:16 *23:61 0
56 *17:16 *23:65 0
57 *17:16 *23:67 0
*RES
1 *1505:Q *23:10 16.4286 
2 *23:10 *23:16 14.8929 
3 *23:16 *23:20 10 
4 *23:20 *1494:B2 15.8571 
5 *23:20 *1495:B2 10.75 
6 *23:16 *1501:A2 5.75 
7 *23:10 *23:51 18.75 
8 *23:51 *23:61 40.1786 
9 *23:61 *23:65 14.2857 
10 *23:65 *23:67 42.6429 
11 *23:67 *1053:A1 9.75 
12 *23:67 *1061:A1 5 
13 *23:61 *1022:A 5 
14 *23:51 *1500:B1 17.2857 
*END

*D_NET *24 0.00337371
*CONN
*I *1500:A I *D AOI21_X1
*I *1501:A1 I *D AND3_X1
*I *1068:A2 I *D AND2_X1
*I *1064:A2 I *D NOR2_X1
*I *1061:A2 I *D NOR2_X1
*I *1053:A2 I *D AND2_X1
*I *1506:Q O *D DFF_X1
*CAP
1 *1500:A 0.0001145
2 *1501:A1 5.42479e-05
3 *1068:A2 6.05734e-05
4 *1064:A2 0
5 *1061:A2 0
6 *1053:A2 7.36107e-05
7 *1506:Q 0
8 *24:56 0.000271503
9 *24:32 8.43664e-05
10 *24:14 0.00055631
11 *24:12 0.000482699
12 *24:10 0.000245234
13 *24:4 0.000324195
14 *1053:A2 *523:18 1.32348e-05
15 *1053:A2 *851:42 0
16 *1068:A2 *1064:A1 2.02052e-05
17 *1068:A2 *1068:A1 0
18 *1068:A2 *329:8 0
19 *1500:A *1502:A2 0.000108464
20 *1500:A *1502:A3 0
21 *1500:A *1506:D 6.44574e-06
22 *1500:A *840:113 1.86809e-06
23 *1501:A1 *1495:A 3.30047e-06
24 *1501:A1 *1502:A2 0
25 *1501:A1 *1502:A3 1.68334e-05
26 *1501:A1 *851:34 5.48932e-05
27 *24:10 *840:104 0
28 *24:10 *840:113 0
29 *24:10 *851:40 7.20944e-05
30 *24:14 *851:40 0
31 *24:14 *851:42 0
32 *24:32 *329:8 0
33 *24:56 *840:113 0
34 *24:56 *851:34 0.000145858
35 *24:56 *851:40 3.60016e-05
36 *1053:A1 *1053:A2 2.40795e-05
37 *1053:A1 *24:14 1.21774e-06
38 *1501:A2 *1501:A1 5.33113e-06
39 *17:16 *1068:A2 5.01004e-05
40 *23:10 *24:56 4.81787e-05
41 *23:16 *1500:A 2.08416e-06
42 *23:16 *1501:A1 6.88125e-05
43 *23:16 *24:56 9.24246e-06
44 *23:51 *1500:A 1.4491e-05
45 *23:61 *24:10 2.36005e-05
46 *23:61 *24:14 4.73469e-05
47 *23:61 *24:32 2.13573e-06
48 *23:65 *24:14 0.000141392
49 *23:67 *24:14 0.000189263
*RES
1 *1506:Q *24:4 5 
2 *24:4 *24:10 30.1429 
3 *24:10 *24:12 5 
4 *24:12 *24:14 60.25 
5 *24:14 *1053:A2 14.2857 
6 *24:14 *1061:A2 5 
7 *24:10 *24:32 2.28572 
8 *24:32 *1064:A2 10 
9 *24:32 *1068:A2 17.7143 
10 *24:4 *24:56 20.9643 
11 *24:56 *1501:A1 18.7143 
12 *24:56 *1500:A 24.75 
*END

*D_NET *27 0.00147486
*CONN
*P wr_en I
*I *898:A1 I *D NOR2_X1
*I *863:A I *D INV_X1
*CAP
1 wr_en 0.000431331
2 *898:A1 0.000241548
3 *863:A 4.62869e-05
4 *27:5 0.000719166
5 *863:A *872:A 3.51992e-06
6 *863:A *902:B2 0
7 *863:A *907:D 0
8 *898:A1 *872:A 1.81116e-05
9 *898:A1 *901:A2 0
10 *898:A1 *902:B2 0
11 *898:A1 *907:D 0
12 *898:A1 *46:8 1.45225e-05
13 full *27:5 3.77173e-07
14 *18:14 *898:A1 0
15 *19:8 *898:A1 0
16 *19:8 *27:5 0
*RES
1 wr_en *27:5 48.5179 
2 *27:5 *863:A 14.75 
3 *27:5 *898:A1 44.7143 
*END

*D_NET *806 0.000165891
*CONN
*I *1520:D I *D DFF_X1
*I *1510:ZN O *D AOI21_X1
*CAP
1 *1520:D 8.26265e-05
2 *1510:ZN 8.26265e-05
3 *1520:D *1517:A2 0
4 *1520:D *1520:CK 6.38328e-07
*RES
1 *1510:ZN *1520:D 28.3929 
*END

*D_NET *807 0.000402791
*CONN
*I *1519:D I *D DFF_X1
*I *1512:ZN O *D NOR3_X1
*CAP
1 *1519:D 0.000192353
2 *1512:ZN 0.000192353
3 *1519:D *1512:A3 1.61655e-05
4 *1519:D *1514:A 0
5 *1519:D *1518:D 0
6 *1519:D *1518:CK 0
7 *1519:D *811:12 1.91954e-06
8 *411:6 *1519:D 0
*RES
1 *1512:ZN *1519:D 29.9286 
*END

*D_NET *808 0.000145554
*CONN
*I *1518:D I *D DFF_X1
*I *1514:ZN O *D AOI21_X1
*CAP
1 *1518:D 7.15784e-05
2 *1514:ZN 7.15784e-05
3 *1518:D *1518:CK 2.39679e-06
4 *1519:D *1518:D 0
*RES
1 *1514:ZN *1518:D 26.8929 
*END

*D_NET *809 0.000199761
*CONN
*I *1521:D I *D DFF_X1
*I *1517:ZN O *D NOR3_X1
*CAP
1 *1521:D 6.23672e-05
2 *1517:ZN 6.23672e-05
3 *1521:D *1517:A3 6.11168e-05
4 *1521:D *837:30 1.39104e-05
*RES
1 *1517:ZN *1521:D 18.3571 
*END

*D_NET *810 0.000147948
*CONN
*I *1509:A I *D OAI21_X1
*I *1513:A I *D OAI21_X1
*I *1507:ZN O *D INV_X1
*CAP
1 *1509:A 3.84586e-05
2 *1513:A 3.02993e-05
3 *1507:ZN 6.87578e-05
4 *1509:A *1510:B1 2.39679e-06
5 *1509:A *1515:B2 8.43215e-07
6 *1509:A *811:19 0
7 *1513:A *1512:A3 7.19234e-06
*RES
1 *1507:ZN *1513:A 13.25 
2 *1507:ZN *1509:A 13.75 
*END

*D_NET *811 0.000678902
*CONN
*I *1516:A3 I *D AND3_X1
*I *1515:B2 I *D AOI21_X1
*I *1510:B1 I *D AOI21_X1
*I *1509:B1 I *D OAI21_X1
*I *1512:A2 I *D NOR3_X1
*I *1508:ZN O *D AND3_X1
*CAP
1 *1516:A3 0
2 *1515:B2 1.83365e-05
3 *1510:B1 5.62425e-05
4 *1509:B1 0
5 *1512:A2 0
6 *1508:ZN 6.96972e-05
7 *811:27 7.48687e-05
8 *811:23 6.09913e-05
9 *811:19 8.10677e-05
10 *811:12 0.000126736
11 *1510:B1 *1510:A 4.2375e-05
12 *1510:B1 *1517:A2 1.21774e-06
13 *811:12 *1512:A3 0
14 *811:19 *1512:A3 1.21774e-06
15 *1509:A *1510:B1 2.39679e-06
16 *1509:A *1515:B2 8.43215e-07
17 *1509:A *811:19 0
18 *1509:B2 *1510:B1 3.09143e-06
19 *1510:B2 *1510:B1 1.85607e-06
20 *1516:A1 *1515:B2 4.93896e-05
21 *1516:A2 *811:19 2.39679e-06
22 *1519:D *811:12 1.91954e-06
23 *30:10 *1510:B1 0
24 *30:25 *811:23 2.89018e-05
25 *30:25 *811:27 4.18985e-05
26 *411:6 *811:12 1.34578e-05
27 *411:6 *811:19 0
*RES
1 *1508:ZN *811:12 22.5714 
2 *811:12 *1512:A2 5 
3 *811:12 *811:19 5.75 
4 *811:19 *811:23 7.28572 
5 *811:23 *811:27 7.28572 
6 *811:27 *1509:B1 5 
7 *811:27 *1510:B1 13.6071 
8 *811:23 *1515:B2 14.75 
9 *811:19 *1516:A3 5 
*END

*D_NET *812 9.81085e-05
*CONN
*I *1510:A I *D AOI21_X1
*I *1509:ZN O *D OAI21_X1
*CAP
1 *1510:A 2.39125e-05
2 *1509:ZN 2.39125e-05
3 *1510:B1 *1510:A 4.2375e-05
4 *1510:B2 *1510:A 7.90853e-06
*RES
1 *1509:ZN *1510:A 13.75 
*END

*D_NET *813 0.000281109
*CONN
*I *1512:A3 I *D NOR3_X1
*I *1511:ZN O *D AOI21_X1
*CAP
1 *1512:A3 0.000128267
2 *1511:ZN 0.000128267
3 *1512:A3 *1514:A 0
4 *1513:A *1512:A3 7.19234e-06
5 *1519:D *1512:A3 1.61655e-05
6 *811:12 *1512:A3 0
7 *811:19 *1512:A3 1.21774e-06
*RES
1 *1511:ZN *1512:A3 33.8214 
*END

*D_NET *814 0.00010498
*CONN
*I *1514:A I *D AOI21_X1
*I *1513:ZN O *D OAI21_X1
*CAP
1 *1514:A 5.249e-05
2 *1513:ZN 5.249e-05
3 *1512:A3 *1514:A 0
4 *1519:D *1514:A 0
*RES
1 *1513:ZN *1514:A 15.25 
*END

*D_NET *815 0.000385145
*CONN
*I *1517:A2 I *D NOR3_X1
*I *1515:ZN O *D AOI21_X1
*CAP
1 *1517:A2 0.000122279
2 *1515:ZN 0.000122279
3 *1517:A2 *1517:A3 9.7274e-05
4 *1517:A2 *1520:CK 0
5 *1517:A2 *837:30 2.56379e-05
6 *1510:B1 *1517:A2 1.21774e-06
7 *1520:D *1517:A2 0
8 *30:8 *1517:A2 6.79532e-06
9 *30:10 *1517:A2 7.16188e-07
10 *31:12 *1517:A2 8.94571e-06
*RES
1 *1515:ZN *1517:A2 26.3571 
*END

*D_NET *816 0.000585213
*CONN
*I *1517:A3 I *D NOR3_X1
*I *1516:ZN O *D AND3_X1
*CAP
1 *1517:A3 0.000193456
2 *1516:ZN 0.000193456
3 *1517:A3 *1520:CK 0
4 *1517:A2 *1517:A3 9.7274e-05
5 *1521:D *1517:A3 6.11168e-05
6 *30:12 *1517:A3 6.22609e-06
7 *31:12 *1517:A3 2.70294e-05
8 *31:14 *1517:A3 6.65423e-06
9 *31:36 *1517:A3 0
10 *411:6 *1517:A3 0
*RES
1 *1516:ZN *1517:A3 44 
*END

*D_NET *30 0.00194917
*CONN
*I *1024:A I *D INV_X1
*I *1287:A2 I *D NAND4_X1
*I *1213:A2 I *D NAND4_X1
*I *1515:B1 I *D AOI21_X1
*I *1509:B2 I *D OAI21_X1
*I *1510:B2 I *D AOI21_X1
*I *1516:A2 I *D AND3_X1
*I *1520:Q O *D DFF_X1
*CAP
1 *1024:A 1.45776e-05
2 *1287:A2 4.14252e-05
3 *1213:A2 6.58997e-05
4 *1515:B1 0
5 *1509:B2 5.31182e-06
6 *1510:B2 5.31301e-05
7 *1516:A2 6.50469e-06
8 *1520:Q 2.98497e-05
9 *30:61 6.47159e-05
10 *30:52 0.00028171
11 *30:25 0.000103616
12 *30:12 8.10359e-05
13 *30:10 3.72873e-05
14 *30:8 0.000244877
15 *1024:A *365:67 0
16 *1213:A2 *1213:A4 3.41279e-05
17 *1213:A2 *1250:A4 3.90891e-05
18 *1213:A2 *31:42 2.52965e-06
19 *1213:A2 *365:67 0
20 *1287:A2 *1165:C1 8.58953e-06
21 *1287:A2 *1165:C2 0
22 *1287:A2 *1287:A4 5.01332e-06
23 *1287:A2 *31:42 2.61469e-06
24 *1509:B2 *1510:B1 3.09143e-06
25 *1510:B2 *1510:A 7.90853e-06
26 *1510:B2 *1510:B1 1.85607e-06
27 *1516:A2 *1516:A1 7.19036e-06
28 *1516:A2 *811:19 2.39679e-06
29 *30:8 *1517:A2 6.79532e-06
30 *30:8 *31:12 2.58542e-05
31 *30:8 *31:14 7.72792e-06
32 *30:10 *1510:B1 0
33 *30:10 *1517:A2 7.16188e-07
34 *30:10 *31:14 1.26998e-05
35 *30:12 *1516:A1 4.16642e-05
36 *30:12 *1517:A3 6.22609e-06
37 *30:12 *31:14 2.39679e-06
38 *30:12 *411:6 0
39 *30:25 *811:23 2.89018e-05
40 *30:25 *811:27 4.18985e-05
41 *30:52 *1165:C1 0
42 *30:52 *1250:A4 3.76527e-05
43 *30:52 *1516:A1 5.64879e-06
44 *30:52 *31:36 0.000586638
*RES
1 *1520:Q *30:8 9.17857 
2 *30:8 *30:10 1.25 
3 *30:10 *30:12 4.25 
4 *30:12 *1516:A2 5.75 
5 *30:12 *30:25 15 
6 *30:25 *1510:B2 10.8571 
7 *30:25 *1509:B2 5.75 
8 *30:10 *1515:B1 5 
9 *30:8 *30:52 43.5 
10 *30:52 *1213:A2 13.75 
11 *30:52 *30:61 0.928572 
12 *30:61 *1287:A2 10 
13 *30:61 *1024:A 7.17857 
*END

*D_NET *31 0.00184855
*CONN
*I *1250:A4 I *D NAND4_X1
*I *1051:A I *D INV_X1
*I *1287:A4 I *D NAND4_X1
*I *1515:A I *D AOI21_X1
*I *1516:A1 I *D AND3_X1
*I *1521:Q O *D DFF_X1
*CAP
1 *1250:A4 5.58776e-05
2 *1051:A 0
3 *1287:A4 4.81015e-05
4 *1515:A 0
5 *1516:A1 4.44508e-05
6 *1521:Q 9.8124e-05
7 *31:42 7.15692e-05
8 *31:36 0.00026447
9 *31:14 5.8159e-05
10 *31:12 0.000296956
11 *1250:A4 *1165:C1 0
12 *1250:A4 *1250:A2 1.5896e-05
13 *1287:A4 *1165:C1 2.31008e-05
14 *1287:A4 *1213:A4 0
15 *1516:A1 *1515:B2 4.93896e-05
16 *31:12 *1517:A2 8.94571e-06
17 *31:12 *1517:A3 2.70294e-05
18 *31:12 *411:6 0
19 *31:14 *1517:A3 6.65423e-06
20 *31:36 *1517:A3 0
21 *31:42 *1213:A4 3.10376e-06
22 *1213:A2 *1250:A4 3.90891e-05
23 *1213:A2 *31:42 2.52965e-06
24 *1287:A2 *1287:A4 5.01332e-06
25 *1287:A2 *31:42 2.61469e-06
26 *1516:A2 *1516:A1 7.19036e-06
27 *30:8 *31:12 2.58542e-05
28 *30:8 *31:14 7.72792e-06
29 *30:10 *31:14 1.26998e-05
30 *30:12 *1516:A1 4.16642e-05
31 *30:12 *31:14 2.39679e-06
32 *30:52 *1250:A4 3.76527e-05
33 *30:52 *1516:A1 5.64879e-06
34 *30:52 *31:36 0.000586638
*RES
1 *1521:Q *31:12 27.0714 
2 *31:12 *31:14 1.75 
3 *31:14 *1516:A1 21.3571 
4 *31:14 *1515:A 5 
5 *31:12 *31:36 35.7857 
6 *31:36 *31:42 7.67857 
7 *31:42 *1287:A4 10.6786 
8 *31:42 *1051:A 5 
9 *31:36 *1250:A4 17.7143 
*END
